 C  N Cr  H  O                          
   1.00000000000000     
     8.4262443000000005    0.0000000000000000    0.0000000000000000
     0.0000000000000000    8.4262885000000001    0.0000000000000000
     0.0000000000000000    0.0000000000000000   30.0000000000000000
   C    N    Cr   H    O 
    20     4     1    47    24
Direct
  0.4973694088840512  0.0890275438484054  0.1060728895019112
  0.3508609167724368  0.1710294421765846  0.1052918200506790
  0.6433524139718275  0.1712655945149506  0.1059718990112113
  0.7945415315792560  0.9220054109561477  0.1039750901013605
  0.7941029239436854  0.0859619317958162  0.1041659434577491
  0.9142255842265433  0.2091834430600118  0.1042198080000512
  0.8318688866405817  0.3555794838689313  0.1053888225190420
  0.2000329476378694  0.0857124358929384  0.1041798374992074
  0.0806084914823770  0.2087159170755056  0.1044047709220912
  0.1638942065157568  0.3553385489359391  0.1048383044319893
  0.0837518855180801  0.5039647124302047  0.1042917514625045
  0.1639274734542210  0.6523899385648934  0.1034128333068388
  0.3511928276518173  0.8361337758575319  0.1039982587849713
  0.1999198031950854  0.9216430475543334  0.1036502355944298
  0.0808730796535269  0.7990427148946397  0.1034492851535345
  0.6437596020307605  0.8363763225993871  0.1051031794876136
  0.8323202874169119  0.6525796562210433  0.1048034338867705
  0.9148160240639517  0.7989680684790016  0.1039835377090794
  0.4974256065348361  0.9182992508495251  0.1054233206347917
  0.9123611483303200  0.5039120641145398  0.1049268791777031
  0.6660975412395018  0.3319352161015510  0.1073346202552420
  0.3288713059769721  0.3312005651216645  0.1055657148519045
  0.3287829578719160  0.6763571672267624  0.1031693350692588
  0.6665095774833252  0.6761905629869848  0.1058075141762259
  0.5005972947174805  0.5042279623462312  0.1156665118456974
  0.9918093372387190  0.3179663432006752  0.2325907742690802
  0.0272498124300454  0.2469408763110783  0.1851028363154139
  0.3797216316799340  0.1836083391980607  0.2723458496577307
  0.5553634653618941  0.2372406936894112  0.2785326502723720
  0.3366004901167330  0.9693367608446760  0.4896823072476468
  0.4342756614019705  0.1256681094066658  0.4979778792873747
  0.8470173012483971  0.0690262488781182  0.3259253161010162
  0.6777399749644899  0.1056858536799310  0.3435325184541077
  0.1483643543728936  0.6420007247353873  0.2354601431422704
  0.3044076412226980  0.6564676602391486  0.2076363339435398
  0.2277110646898651  0.9157792269806071  0.2477736296815023
  0.1413874568392751  0.0814009311106235  0.2436530724628592
  0.7248629512864185  0.7788721298249996  0.4693609059305429
  0.5968056352757833  0.8625089739647135  0.4998984600201738
  0.7474610290868620  0.7944396814181285  0.2204018937874248
  0.8306287630369679  0.6837535400915778  0.1860450979852827
  0.7600437967606427  0.3945452778213826  0.4565205943535695
  0.8232983609035707  0.4361334901277489  0.4084699280951805
  0.3830447972871171  0.3821382943816124  0.4078883690459780
  0.2720988071353317  0.4416830591605290  0.4457305763016604
  0.0135425186962319  0.5411372729603117  0.4537584950002253
  0.1255935283882690  0.6901848177508269  0.4615315286034927
  0.0815993083336420  0.0306923865300858  0.3659521026267086
  0.1095159220137834  0.9894554413093390  0.3145553477351020
  0.0728946208724313  0.8731854947845336  0.5113287840359331
  0.1013669422747289  0.9718151101394564  0.4660298511476913
  0.8349680876291286  0.8038718106965680  0.5367977422609249
  0.9582303099835031  0.7210488725816008  0.5682873628557240
  0.0828323459975486  0.7400944940906973  0.3470065993788874
  0.0893107406688688  0.6120256957842246  0.3842591504195980
  0.6844198851218600  0.1768396021525423  0.4161831815531833
  0.5459466112236060  0.0638622247501848  0.4298590578056082
  0.5186424289153663  0.4220728891543399  0.4750731680483484
  0.6192423109200743  0.5578315914995909  0.4980155617398357
  0.0032552236464613  0.2094459959681066  0.4279688316259533
  0.1886496439717218  0.1992434584215546  0.4289749600010155
  0.5278651636803527  0.6516875390909233  0.3507580558982322
  0.5357083828259899  0.8381440234498952  0.3563016432403894
  0.2968568956287833  0.5294814424307738  0.3465998828099415
  0.4158885941225332  0.4044016946210434  0.3254464071301595
  0.8192259800795120  0.0651790240413112  0.2210556107384974
  0.7220397971516437  0.0201911353294399  0.2626992261717999
  0.8879030544229858  0.8349368294098385  0.4099496281224553
  0.7364639276225001  0.7459380483819591  0.3943834356425864
  0.9970092869514753  0.5277924894850816  0.2938092489134631
  0.8928426404224215  0.5713240663722781  0.2513959651421590
  0.5787547614375538  0.5724570142751738  0.1898518865489034
 -0.0020071155122015  0.2173596274511637  0.2154381787012677
  0.4464676145532017  0.2766112793837109  0.2788837156947269
  0.4443299719887924  0.0170706732732960  0.4872350980825204
  0.7463714643162294  0.1208878775522868  0.3174334802076196
  0.2160599451876281  0.7189379435766233  0.2195975904506241
  0.2131876462613705  0.0192947824786382  0.2630194490530821
  0.6757932108654267  0.7760540525368602  0.4996878238120507
  0.7601436030481722  0.6795175247956839  0.2118254086153846
  0.8382837680141197  0.3606654588323455  0.4327409425547060
  0.3501940275046911  0.3565819018151443  0.4388605893754839
  0.1203017131522967  0.5820643230700463  0.4483186640794410
  0.0430971712219090  0.9642326209467885  0.3411801501826931
  0.1437229205740565  0.8848242820919292  0.4847952077227030
  0.9369529999660712  0.8207766843304870  0.5530972227174216
  0.0998766406404672  0.6252743479272529  0.3517289279396117
  0.6186917625822436  0.0891466503368060  0.4052491319951779
  0.6165187930464906  0.4422351737756818  0.4924283251730962
  0.0920537233619746  0.1340757017095535  0.4244732777313742
  0.6012033604884769  0.7439950895722547  0.3525318663398999
  0.4013372614782985  0.4781046075771945  0.3511289116296070
  0.7334158467071240  0.9940300065084745  0.2307243141061319
  0.8196170249349046  0.7466658278244103  0.4183287096155575
  0.9869526295561440  0.5108338749416874  0.2615720677688887
  0.4839276313376835  0.5237410309178820  0.1754899653158719
 
  0.00000000E+00  0.00000000E+00  0.00000000E+00
  0.00000000E+00  0.00000000E+00  0.00000000E+00
  0.00000000E+00  0.00000000E+00  0.00000000E+00
  0.00000000E+00  0.00000000E+00  0.00000000E+00
  0.00000000E+00  0.00000000E+00  0.00000000E+00
  0.00000000E+00  0.00000000E+00  0.00000000E+00
  0.00000000E+00  0.00000000E+00  0.00000000E+00
  0.00000000E+00  0.00000000E+00  0.00000000E+00
  0.00000000E+00  0.00000000E+00  0.00000000E+00
  0.00000000E+00  0.00000000E+00  0.00000000E+00
  0.00000000E+00  0.00000000E+00  0.00000000E+00
  0.00000000E+00  0.00000000E+00  0.00000000E+00
  0.00000000E+00  0.00000000E+00  0.00000000E+00
  0.00000000E+00  0.00000000E+00  0.00000000E+00
  0.00000000E+00  0.00000000E+00  0.00000000E+00
  0.00000000E+00  0.00000000E+00  0.00000000E+00
  0.00000000E+00  0.00000000E+00  0.00000000E+00
  0.00000000E+00  0.00000000E+00  0.00000000E+00
  0.00000000E+00  0.00000000E+00  0.00000000E+00
  0.00000000E+00  0.00000000E+00  0.00000000E+00
  0.00000000E+00  0.00000000E+00  0.00000000E+00
  0.00000000E+00  0.00000000E+00  0.00000000E+00
  0.00000000E+00  0.00000000E+00  0.00000000E+00
  0.00000000E+00  0.00000000E+00  0.00000000E+00
  0.00000000E+00  0.00000000E+00  0.00000000E+00
  0.00000000E+00  0.00000000E+00  0.00000000E+00
  0.00000000E+00  0.00000000E+00  0.00000000E+00
  0.00000000E+00  0.00000000E+00  0.00000000E+00
  0.00000000E+00  0.00000000E+00  0.00000000E+00
  0.00000000E+00  0.00000000E+00  0.00000000E+00
  0.00000000E+00  0.00000000E+00  0.00000000E+00
  0.00000000E+00  0.00000000E+00  0.00000000E+00
  0.00000000E+00  0.00000000E+00  0.00000000E+00
  0.00000000E+00  0.00000000E+00  0.00000000E+00
  0.00000000E+00  0.00000000E+00  0.00000000E+00
  0.00000000E+00  0.00000000E+00  0.00000000E+00
  0.00000000E+00  0.00000000E+00  0.00000000E+00
  0.00000000E+00  0.00000000E+00  0.00000000E+00
  0.00000000E+00  0.00000000E+00  0.00000000E+00
  0.00000000E+00  0.00000000E+00  0.00000000E+00
  0.00000000E+00  0.00000000E+00  0.00000000E+00
  0.00000000E+00  0.00000000E+00  0.00000000E+00
  0.00000000E+00  0.00000000E+00  0.00000000E+00
  0.00000000E+00  0.00000000E+00  0.00000000E+00
  0.00000000E+00  0.00000000E+00  0.00000000E+00
  0.00000000E+00  0.00000000E+00  0.00000000E+00
  0.00000000E+00  0.00000000E+00  0.00000000E+00
  0.00000000E+00  0.00000000E+00  0.00000000E+00
  0.00000000E+00  0.00000000E+00  0.00000000E+00
  0.00000000E+00  0.00000000E+00  0.00000000E+00
  0.00000000E+00  0.00000000E+00  0.00000000E+00
  0.00000000E+00  0.00000000E+00  0.00000000E+00
  0.00000000E+00  0.00000000E+00  0.00000000E+00
  0.00000000E+00  0.00000000E+00  0.00000000E+00
  0.00000000E+00  0.00000000E+00  0.00000000E+00
  0.00000000E+00  0.00000000E+00  0.00000000E+00
  0.00000000E+00  0.00000000E+00  0.00000000E+00
  0.00000000E+00  0.00000000E+00  0.00000000E+00
  0.00000000E+00  0.00000000E+00  0.00000000E+00
  0.00000000E+00  0.00000000E+00  0.00000000E+00
  0.00000000E+00  0.00000000E+00  0.00000000E+00
  0.00000000E+00  0.00000000E+00  0.00000000E+00
  0.00000000E+00  0.00000000E+00  0.00000000E+00
  0.00000000E+00  0.00000000E+00  0.00000000E+00
  0.00000000E+00  0.00000000E+00  0.00000000E+00
  0.00000000E+00  0.00000000E+00  0.00000000E+00
  0.00000000E+00  0.00000000E+00  0.00000000E+00
  0.00000000E+00  0.00000000E+00  0.00000000E+00
  0.00000000E+00  0.00000000E+00  0.00000000E+00
  0.00000000E+00  0.00000000E+00  0.00000000E+00
  0.00000000E+00  0.00000000E+00  0.00000000E+00
  0.00000000E+00  0.00000000E+00  0.00000000E+00
  0.00000000E+00  0.00000000E+00  0.00000000E+00
  0.00000000E+00  0.00000000E+00  0.00000000E+00
  0.00000000E+00  0.00000000E+00  0.00000000E+00
  0.00000000E+00  0.00000000E+00  0.00000000E+00
  0.00000000E+00  0.00000000E+00  0.00000000E+00
  0.00000000E+00  0.00000000E+00  0.00000000E+00
  0.00000000E+00  0.00000000E+00  0.00000000E+00
  0.00000000E+00  0.00000000E+00  0.00000000E+00
  0.00000000E+00  0.00000000E+00  0.00000000E+00
  0.00000000E+00  0.00000000E+00  0.00000000E+00
  0.00000000E+00  0.00000000E+00  0.00000000E+00
  0.00000000E+00  0.00000000E+00  0.00000000E+00
  0.00000000E+00  0.00000000E+00  0.00000000E+00
  0.00000000E+00  0.00000000E+00  0.00000000E+00
  0.00000000E+00  0.00000000E+00  0.00000000E+00
  0.00000000E+00  0.00000000E+00  0.00000000E+00
  0.00000000E+00  0.00000000E+00  0.00000000E+00
  0.00000000E+00  0.00000000E+00  0.00000000E+00
  0.00000000E+00  0.00000000E+00  0.00000000E+00
  0.00000000E+00  0.00000000E+00  0.00000000E+00
  0.00000000E+00  0.00000000E+00  0.00000000E+00
  0.00000000E+00  0.00000000E+00  0.00000000E+00
  0.00000000E+00  0.00000000E+00  0.00000000E+00
  0.00000000E+00  0.00000000E+00  0.00000000E+00
