 C Co  H  N  O                          
   1.00000000000000     
     8.3817804000000002    0.0000000000000000    0.0000000000000000
     0.0000000000000000    8.3818243999999993    0.0000000000000000
     0.0000000000000000    0.0000000000000000   30.0000000000000000
   C    Co   H    N    O 
    20     1    46     4    23
Direct
  0.4968220843344072  0.0977012674743126  0.0986491483006184
  0.3513481188728156  0.1796473299272957  0.0985637873019473
  0.6450156100263994  0.1773412686802443  0.1001805951612758
  0.7915598592263349  0.9257306436478268  0.1020441517458012
  0.7890783097247792  0.0944455580035418  0.1029668496387229
  0.9137785216853407  0.2125587722292825  0.1163378327845288
  0.8241472736716431  0.3683138591296036  0.1064945921173650
  0.2023082030114985  0.0966512261747891  0.0994266387306102
  0.0845309175228219  0.2137264413109599  0.1027188801564451
  0.1690078730369375  0.3669585354730958  0.1026374438862585
  0.0832765838046455  0.5122691773769286  0.1036683650503685
  0.1660499784265290  0.6562680037442781  0.1020016145843894
  0.3496616754336864  0.8406967616821766  0.0993738850401839
  0.2006916302048252  0.9251914249771912  0.0998807593483512
  0.0806760404840898  0.8082586307097733  0.1016743578013057
  0.6414967965279679  0.8404347576236186  0.1005967127346792
  0.8259544393814315  0.6559351612809308  0.1017671276799271
  0.9118787053321110  0.8089575143504271  0.1019094987674171
  0.4961313408445547  0.9234096677778308  0.0992639200207138
  0.9093157273153991  0.5128567830507753  0.1043670306721985
  0.4968159297625096  0.5107136469835963  0.1017593516246182
  0.8093415773669196  0.9677772961182397  0.5462099775535774
  0.6940666554586896  0.0713165646691242  0.5194860508484226
  0.6463556433289803  0.5355775944510385  0.2964941639453973
  0.5780156090157429  0.3852988028542094  0.2736970194095487
  0.7291731751458717  0.5445483281143529  0.4300915563824599
  0.8810304610343067  0.4556022519740058  0.4483954588862868
  0.6847217020704726  0.7184787854965796  0.5113679021601448
  0.8275739567486168  0.6887618973210343  0.4801859177225987
  0.5580021351557836  0.9317455276085028  0.3689738915893510
  0.5864984399177241  0.9490653906601317  0.4194836122225634
  0.1864679579728813  0.6249813874917414  0.2876346782815623
  0.3520897674838950  0.5470139071514024  0.2986655056219903
  0.4940904941888878  0.5102436358238599  0.1492897817672434
  0.7767469707859425  0.4415775049913221  0.1924344573081191
  0.6312322640973811  0.1827455997326741  0.4465657765380962
  0.8031033297083562  0.1100853759196399  0.4497730613158608
  0.8278836455483938  0.1011832718030692  0.2414586278556103
  0.8447688190955621  0.2854159541707108  0.2420137669214795
  0.8744969736527450  0.6744113371211127  0.3302976611167464
  0.8300331431646443  0.5420057312003764  0.3631855116248153
  0.9618408507924566  0.6496087192573149  0.2265413177028094
  0.0545515741651607  0.7982557143234138  0.2105219077654881
  0.2665240629394036  0.2857337615194700  0.2110966235399710
  0.3541265209374829  0.3022179892907809  0.2124920833476776
  0.1301208225447064  0.4055510310498597  0.3346885446903425
  0.9663471718040559  0.3207119666120766  0.3294483280515710
  0.2002475656888627  0.1496772904129169  0.3335653235660589
  0.2774561644119585  0.0004143551518194  0.3562816056844702
  0.4168728345192985  0.2183023558750571  0.3681318911246660
  0.5974443883603590  0.2311346067464589  0.3750595121862079
  0.0561015131419376  0.8420730429531181  0.3715249027970466
  0.0593721130306112  0.8904965387502922  0.3214848387232800
  0.2520268527984126  0.4218831012288575  0.4811197118345793
  0.3521948451598828  0.3170705031079891  0.4482987892947023
  0.5215185804657830  0.6751878385766168  0.4106887467236851
  0.5005181733180625  0.4882009057272268  0.4046175616437165
  0.0974626757779157  0.2107354260190218  0.4526796412223250
  0.0264155270644311  0.2003913538351649  0.4050180946606372
  0.8554286217211319  0.2738835067737718  0.5306696122888067
  0.8336495144716702  0.4602909944666016  0.5285736828974682
  0.1891201205423103  0.6981046125129179  0.4691352875117857
  0.0928007767763658  0.6256660544543194  0.5088799913358357
  0.7524399300721311  0.1338212507003564  0.3147257188190593
  0.8277679701791172  0.0241294797399811  0.3510459875848325
  0.3078863522475815  0.8727339748901959  0.4160722395750207
  0.1472475834771542  0.9604784823945204  0.4304044728061563
  0.6670481729445420  0.3467427649081308  0.1018398706918248
  0.3295209480288118  0.3471958076370906  0.1000121550889584
  0.3289356766715519  0.6768674561308373  0.1001619635269280
  0.6633640459127225  0.6767693506188893  0.1007222713709012
  0.7515813394901806  0.0690672317634458  0.5481293527256064
  0.5617267598151157  0.5003332360969045  0.2753980782160103
  0.8487729335115715  0.5436634307980588  0.4288416074515728
  0.8009433435987873  0.7220144259151888  0.5108683495398106
  0.5212413775575387  0.8887629081200511  0.3975299470173883
  0.2458131917086061  0.5711560046478573  0.3112595753592704
  0.8900569905917690  0.4396287083431900  0.2006848665155229
  0.6889064145387335  0.0864926193507295  0.4553221542440182
  0.7932431593068237  0.1951035926074924  0.2578793849792422
  0.8209297766215190  0.5697608633613462  0.3313752657294121
  0.0059493693316957  0.7518132935267844  0.2369692050472920
  0.9384489531090641  0.2017101112221531  0.1627979642517071
  0.0704786844047821  0.3078196486265012  0.3434493935064300
  0.2946497392157799  0.0775858942556673  0.3324344847371804
  0.4964293370395280  0.2764928138913247  0.3862282244646021
  0.9859211445639792  0.8646940914898671  0.3456314060490459
  0.2719399025947808  0.3096947022797408  0.4718114441300144
  0.5287639716161936  0.5718111573303335  0.4262803151147551
  0.0226197760343043  0.1461620188349042  0.4340199201597539
  0.8851838569807094  0.3701666393729892  0.5137691299434514
  0.1971415379413708  0.6239184772269897  0.4945503236276433
  0.7383735031338042  0.0982763717247935  0.3457770489021202
  0.1921421877549998  0.8569691872670293  0.4204722380116792
 
  0.00000000E+00  0.00000000E+00  0.00000000E+00
  0.00000000E+00  0.00000000E+00  0.00000000E+00
  0.00000000E+00  0.00000000E+00  0.00000000E+00
  0.00000000E+00  0.00000000E+00  0.00000000E+00
  0.00000000E+00  0.00000000E+00  0.00000000E+00
  0.00000000E+00  0.00000000E+00  0.00000000E+00
  0.00000000E+00  0.00000000E+00  0.00000000E+00
  0.00000000E+00  0.00000000E+00  0.00000000E+00
  0.00000000E+00  0.00000000E+00  0.00000000E+00
  0.00000000E+00  0.00000000E+00  0.00000000E+00
  0.00000000E+00  0.00000000E+00  0.00000000E+00
  0.00000000E+00  0.00000000E+00  0.00000000E+00
  0.00000000E+00  0.00000000E+00  0.00000000E+00
  0.00000000E+00  0.00000000E+00  0.00000000E+00
  0.00000000E+00  0.00000000E+00  0.00000000E+00
  0.00000000E+00  0.00000000E+00  0.00000000E+00
  0.00000000E+00  0.00000000E+00  0.00000000E+00
  0.00000000E+00  0.00000000E+00  0.00000000E+00
  0.00000000E+00  0.00000000E+00  0.00000000E+00
  0.00000000E+00  0.00000000E+00  0.00000000E+00
  0.00000000E+00  0.00000000E+00  0.00000000E+00
  0.00000000E+00  0.00000000E+00  0.00000000E+00
  0.00000000E+00  0.00000000E+00  0.00000000E+00
  0.00000000E+00  0.00000000E+00  0.00000000E+00
  0.00000000E+00  0.00000000E+00  0.00000000E+00
  0.00000000E+00  0.00000000E+00  0.00000000E+00
  0.00000000E+00  0.00000000E+00  0.00000000E+00
  0.00000000E+00  0.00000000E+00  0.00000000E+00
  0.00000000E+00  0.00000000E+00  0.00000000E+00
  0.00000000E+00  0.00000000E+00  0.00000000E+00
  0.00000000E+00  0.00000000E+00  0.00000000E+00
  0.00000000E+00  0.00000000E+00  0.00000000E+00
  0.00000000E+00  0.00000000E+00  0.00000000E+00
  0.00000000E+00  0.00000000E+00  0.00000000E+00
  0.00000000E+00  0.00000000E+00  0.00000000E+00
  0.00000000E+00  0.00000000E+00  0.00000000E+00
  0.00000000E+00  0.00000000E+00  0.00000000E+00
  0.00000000E+00  0.00000000E+00  0.00000000E+00
  0.00000000E+00  0.00000000E+00  0.00000000E+00
  0.00000000E+00  0.00000000E+00  0.00000000E+00
  0.00000000E+00  0.00000000E+00  0.00000000E+00
  0.00000000E+00  0.00000000E+00  0.00000000E+00
  0.00000000E+00  0.00000000E+00  0.00000000E+00
  0.00000000E+00  0.00000000E+00  0.00000000E+00
  0.00000000E+00  0.00000000E+00  0.00000000E+00
  0.00000000E+00  0.00000000E+00  0.00000000E+00
  0.00000000E+00  0.00000000E+00  0.00000000E+00
  0.00000000E+00  0.00000000E+00  0.00000000E+00
  0.00000000E+00  0.00000000E+00  0.00000000E+00
  0.00000000E+00  0.00000000E+00  0.00000000E+00
  0.00000000E+00  0.00000000E+00  0.00000000E+00
  0.00000000E+00  0.00000000E+00  0.00000000E+00
  0.00000000E+00  0.00000000E+00  0.00000000E+00
  0.00000000E+00  0.00000000E+00  0.00000000E+00
  0.00000000E+00  0.00000000E+00  0.00000000E+00
  0.00000000E+00  0.00000000E+00  0.00000000E+00
  0.00000000E+00  0.00000000E+00  0.00000000E+00
  0.00000000E+00  0.00000000E+00  0.00000000E+00
  0.00000000E+00  0.00000000E+00  0.00000000E+00
  0.00000000E+00  0.00000000E+00  0.00000000E+00
  0.00000000E+00  0.00000000E+00  0.00000000E+00
  0.00000000E+00  0.00000000E+00  0.00000000E+00
  0.00000000E+00  0.00000000E+00  0.00000000E+00
  0.00000000E+00  0.00000000E+00  0.00000000E+00
  0.00000000E+00  0.00000000E+00  0.00000000E+00
  0.00000000E+00  0.00000000E+00  0.00000000E+00
  0.00000000E+00  0.00000000E+00  0.00000000E+00
  0.00000000E+00  0.00000000E+00  0.00000000E+00
  0.00000000E+00  0.00000000E+00  0.00000000E+00
  0.00000000E+00  0.00000000E+00  0.00000000E+00
  0.00000000E+00  0.00000000E+00  0.00000000E+00
  0.00000000E+00  0.00000000E+00  0.00000000E+00
  0.00000000E+00  0.00000000E+00  0.00000000E+00
  0.00000000E+00  0.00000000E+00  0.00000000E+00
  0.00000000E+00  0.00000000E+00  0.00000000E+00
  0.00000000E+00  0.00000000E+00  0.00000000E+00
  0.00000000E+00  0.00000000E+00  0.00000000E+00
  0.00000000E+00  0.00000000E+00  0.00000000E+00
  0.00000000E+00  0.00000000E+00  0.00000000E+00
  0.00000000E+00  0.00000000E+00  0.00000000E+00
  0.00000000E+00  0.00000000E+00  0.00000000E+00
  0.00000000E+00  0.00000000E+00  0.00000000E+00
  0.00000000E+00  0.00000000E+00  0.00000000E+00
  0.00000000E+00  0.00000000E+00  0.00000000E+00
  0.00000000E+00  0.00000000E+00  0.00000000E+00
  0.00000000E+00  0.00000000E+00  0.00000000E+00
  0.00000000E+00  0.00000000E+00  0.00000000E+00
  0.00000000E+00  0.00000000E+00  0.00000000E+00
  0.00000000E+00  0.00000000E+00  0.00000000E+00
  0.00000000E+00  0.00000000E+00  0.00000000E+00
  0.00000000E+00  0.00000000E+00  0.00000000E+00
  0.00000000E+00  0.00000000E+00  0.00000000E+00
  0.00000000E+00  0.00000000E+00  0.00000000E+00
  0.00000000E+00  0.00000000E+00  0.00000000E+00
