 C  H  N Ni  O                          
   1.00000000000000     
     8.3752332000000003    0.0000000000000000    0.0000000000000000
     0.0000000000000000    8.3752771999999993    0.0000000000000000
     0.0000000000000000    0.0000000000000000   30.0000000000000000
   C    H    N    Ni   O 
    20    45     4     1    23
Direct
  0.1409137380267176  0.0317016256774469  0.0879144957788466
  0.9948057827521353  0.1149679186659328  0.0876176651889227
  0.2873141029282429  0.1146072226146014  0.0885036348046386
  0.4372609809786863  0.8597188999870411  0.0885321431512251
  0.4370398029953706  0.0303805538498087  0.0885884895597615
  0.5557868296361018  0.1477703291528623  0.0887250007198970
  0.4701863091677712  0.2997018655694956  0.0890519826620375
  0.8444498771436320  0.0304382781478107  0.0876815493498705
  0.7258018217114259  0.1479096967009694  0.0884689694027328
  0.8113126413309036  0.2995770487108628  0.0886677625684182
  0.7272640198050642  0.4449515058387581  0.0891858943044829
  0.8112022299913726  0.5902319770523538  0.0880838171320357
  0.9945782481089387  0.7753191862521526  0.0869453066799768
  0.8446450253574901  0.8596361943963007  0.0873912470923065
  0.7256835276597392  0.7418219173195263  0.0880736343175476
  0.2868469974019665  0.7751702173057463  0.0881171224891163
  0.4702996204830865  0.5903257190137164  0.0889733435127145
  0.5556263833568077  0.7419718654186348  0.0887211125240777
  0.1409155864013285  0.8584577690185501  0.0875829479442568
  0.5542695414131031  0.4450684060555781  0.0894884258559808
  0.3877192014788770  0.0695246231698699  0.4347522541491582
  0.2770034787181310  0.2028714163932327  0.4134193872643910
  0.3447576216936905  0.9136840204797593  0.2175895432048888
  0.2775931937830179  0.7652418295754218  0.2419047069453559
  0.5612951362346394  0.5798001643346652  0.5105495857043973
  0.6979953984751397  0.4546911957360749  0.5171419030863368
  0.6534744934912087  0.4807101721502547  0.3996136309939612
  0.7934563752163072  0.3598773039462916  0.4039194778987595
  0.8961813504914681  0.8176957914744915  0.3002103755549574
  0.9054785354803548  0.6414001956434865  0.3176525291039180
  0.3398288865489910  0.7638288727934546  0.5021016887499947
  0.4605152475034011  0.7804222391715805  0.4629526204860816
  0.1559603035537467  0.4588395008922996  0.4277715404858946
  0.1249422227166832  0.3848631947380519  0.3799421217820989
  0.4043092633154693  0.7395959662485164  0.3434254073412370
  0.3235921487926190  0.8940539919135446  0.3617951612850437
  0.4920936107023940  0.1332660510229833  0.3664831338609921
  0.5092385012228463  0.0590074206800659  0.3207494644167065
  0.9998346262187782  0.8373816238902830  0.2041456723742094
  0.8858879075247190  0.8403520088431350  0.1636908686012584
  0.1002503484131699  0.9718365164281633  0.2662665187697625
  0.9399522169761267  0.0614344096469486  0.2590198135958782
  0.1094076690916356  0.4083540756541537  0.2261429103169348
  0.2527419717324008  0.3713411599265726  0.2565944275478336
  0.4998428680635374  0.3900842618081432  0.3436427536312688
  0.3774296648583824  0.4727204244395218  0.3748587134851140
  0.9188438648753351  0.2647864641045578  0.5277380139150691
  0.8621022845748728  0.1963870699596934  0.4828306419504657
  0.8284244769060581  0.9152079329532944  0.5185505995922328
  0.7760041305053291  0.7307849166369954  0.5153115554361624
  0.8316288894521315  0.0498044186891260  0.4180219899029120
  0.0170492791065132  0.0772750483728383  0.4201861973298565
  0.6759832515725159  0.6383410351471741  0.2722190658909882
  0.5184201077178350  0.5654896037316477  0.2879540437229123
  0.6950071895919209  0.2340091592200717  0.2834458675567083
  0.6674053985025500  0.3697177187206620  0.2498296264689829
  0.6317903075646912  0.9274631859523684  0.2076944867425418
  0.5886511664140691  0.1005546397969723  0.2207593322506023
  0.9654267695623514  0.2289148178974689  0.3387203621921937
  0.0344632026483919  0.3579722232111754  0.3068811533383782
  0.6494448455561151  0.8343565389684284  0.4050604045480621
  0.7086951785143550  0.8616230333000139  0.4546932266917061
  0.9077556707032099  0.5195441450160748  0.4524571366419020
  0.0107768472505374  0.6430607603203607  0.4779158443868380
  0.1273695474650773  0.5652924583176394  0.1674017001227272
  0.3083881246645852  0.2787291294519184  0.0878056741124179
  0.9732418598557659  0.2787144124218173  0.0870262259899035
  0.9731332443288546  0.6113861902116681  0.0862587213526640
  0.3080979010210699  0.6113864626026214  0.0874137024401219
  0.1402499756537031  0.4452958809694482  0.0930153122895311
  0.3069048271560877  0.0874953533103111  0.4119320386174193
  0.2437087180823370  0.8557831655227962  0.2237674704560383
  0.6582726372862796  0.5574072758142415  0.5280407348674885
  0.7355892071298463  0.4420362361254704  0.4204231241839943
  0.8308085663061365  0.7273183764553597  0.3109417172500397
  0.3959220983905376  0.7021346348666230  0.4795122702271901
  0.2091998120798079  0.4001727089855568  0.4030335705644987
  0.3668190019909287  0.8456045320618896  0.3347124568626061
  0.5448978417860910  0.1522966259455432  0.3377432415039769
  0.8871281818839972  0.8272445346415438  0.1959087360137746
  0.0043175505489463  0.0100476339925268  0.2820585657590037
  0.1476015493394851  0.4209224315721414  0.2569838665461353
  0.4747999735408376  0.4948674322876803  0.3566094782361201
  0.8334203273697368  0.2012989792395710  0.5146454444248749
  0.8321362939405020  0.8199908529176680  0.4996911191715448
  0.9142380058458600  0.1323141861635380  0.4204165479293729
  0.5832966780120524  0.5766696345992103  0.2610302091666061
  0.7032597495991828  0.2569777030450960  0.2516035992167293
  0.5450156486363865  0.0050874788023039  0.2055105687678067
  0.9857394330170582  0.3434362219685516  0.3366650793075941
  0.6327023756587988  0.9010978180650788  0.4312998239209866
  0.0121883229585564  0.5328452827075751  0.4673899403158886
  0.1320882368924444  0.4518754992255655  0.1597086727921196
 
  0.00000000E+00  0.00000000E+00  0.00000000E+00
  0.00000000E+00  0.00000000E+00  0.00000000E+00
  0.00000000E+00  0.00000000E+00  0.00000000E+00
  0.00000000E+00  0.00000000E+00  0.00000000E+00
  0.00000000E+00  0.00000000E+00  0.00000000E+00
  0.00000000E+00  0.00000000E+00  0.00000000E+00
  0.00000000E+00  0.00000000E+00  0.00000000E+00
  0.00000000E+00  0.00000000E+00  0.00000000E+00
  0.00000000E+00  0.00000000E+00  0.00000000E+00
  0.00000000E+00  0.00000000E+00  0.00000000E+00
  0.00000000E+00  0.00000000E+00  0.00000000E+00
  0.00000000E+00  0.00000000E+00  0.00000000E+00
  0.00000000E+00  0.00000000E+00  0.00000000E+00
  0.00000000E+00  0.00000000E+00  0.00000000E+00
  0.00000000E+00  0.00000000E+00  0.00000000E+00
  0.00000000E+00  0.00000000E+00  0.00000000E+00
  0.00000000E+00  0.00000000E+00  0.00000000E+00
  0.00000000E+00  0.00000000E+00  0.00000000E+00
  0.00000000E+00  0.00000000E+00  0.00000000E+00
  0.00000000E+00  0.00000000E+00  0.00000000E+00
  0.00000000E+00  0.00000000E+00  0.00000000E+00
  0.00000000E+00  0.00000000E+00  0.00000000E+00
  0.00000000E+00  0.00000000E+00  0.00000000E+00
  0.00000000E+00  0.00000000E+00  0.00000000E+00
  0.00000000E+00  0.00000000E+00  0.00000000E+00
  0.00000000E+00  0.00000000E+00  0.00000000E+00
  0.00000000E+00  0.00000000E+00  0.00000000E+00
  0.00000000E+00  0.00000000E+00  0.00000000E+00
  0.00000000E+00  0.00000000E+00  0.00000000E+00
  0.00000000E+00  0.00000000E+00  0.00000000E+00
  0.00000000E+00  0.00000000E+00  0.00000000E+00
  0.00000000E+00  0.00000000E+00  0.00000000E+00
  0.00000000E+00  0.00000000E+00  0.00000000E+00
  0.00000000E+00  0.00000000E+00  0.00000000E+00
  0.00000000E+00  0.00000000E+00  0.00000000E+00
  0.00000000E+00  0.00000000E+00  0.00000000E+00
  0.00000000E+00  0.00000000E+00  0.00000000E+00
  0.00000000E+00  0.00000000E+00  0.00000000E+00
  0.00000000E+00  0.00000000E+00  0.00000000E+00
  0.00000000E+00  0.00000000E+00  0.00000000E+00
  0.00000000E+00  0.00000000E+00  0.00000000E+00
  0.00000000E+00  0.00000000E+00  0.00000000E+00
  0.00000000E+00  0.00000000E+00  0.00000000E+00
  0.00000000E+00  0.00000000E+00  0.00000000E+00
  0.00000000E+00  0.00000000E+00  0.00000000E+00
  0.00000000E+00  0.00000000E+00  0.00000000E+00
  0.00000000E+00  0.00000000E+00  0.00000000E+00
  0.00000000E+00  0.00000000E+00  0.00000000E+00
  0.00000000E+00  0.00000000E+00  0.00000000E+00
  0.00000000E+00  0.00000000E+00  0.00000000E+00
  0.00000000E+00  0.00000000E+00  0.00000000E+00
  0.00000000E+00  0.00000000E+00  0.00000000E+00
  0.00000000E+00  0.00000000E+00  0.00000000E+00
  0.00000000E+00  0.00000000E+00  0.00000000E+00
  0.00000000E+00  0.00000000E+00  0.00000000E+00
  0.00000000E+00  0.00000000E+00  0.00000000E+00
  0.00000000E+00  0.00000000E+00  0.00000000E+00
  0.00000000E+00  0.00000000E+00  0.00000000E+00
  0.00000000E+00  0.00000000E+00  0.00000000E+00
  0.00000000E+00  0.00000000E+00  0.00000000E+00
  0.00000000E+00  0.00000000E+00  0.00000000E+00
  0.00000000E+00  0.00000000E+00  0.00000000E+00
  0.00000000E+00  0.00000000E+00  0.00000000E+00
  0.00000000E+00  0.00000000E+00  0.00000000E+00
  0.00000000E+00  0.00000000E+00  0.00000000E+00
  0.00000000E+00  0.00000000E+00  0.00000000E+00
  0.00000000E+00  0.00000000E+00  0.00000000E+00
  0.00000000E+00  0.00000000E+00  0.00000000E+00
  0.00000000E+00  0.00000000E+00  0.00000000E+00
  0.00000000E+00  0.00000000E+00  0.00000000E+00
  0.00000000E+00  0.00000000E+00  0.00000000E+00
  0.00000000E+00  0.00000000E+00  0.00000000E+00
  0.00000000E+00  0.00000000E+00  0.00000000E+00
  0.00000000E+00  0.00000000E+00  0.00000000E+00
  0.00000000E+00  0.00000000E+00  0.00000000E+00
  0.00000000E+00  0.00000000E+00  0.00000000E+00
  0.00000000E+00  0.00000000E+00  0.00000000E+00
  0.00000000E+00  0.00000000E+00  0.00000000E+00
  0.00000000E+00  0.00000000E+00  0.00000000E+00
  0.00000000E+00  0.00000000E+00  0.00000000E+00
  0.00000000E+00  0.00000000E+00  0.00000000E+00
  0.00000000E+00  0.00000000E+00  0.00000000E+00
  0.00000000E+00  0.00000000E+00  0.00000000E+00
  0.00000000E+00  0.00000000E+00  0.00000000E+00
  0.00000000E+00  0.00000000E+00  0.00000000E+00
  0.00000000E+00  0.00000000E+00  0.00000000E+00
  0.00000000E+00  0.00000000E+00  0.00000000E+00
  0.00000000E+00  0.00000000E+00  0.00000000E+00
  0.00000000E+00  0.00000000E+00  0.00000000E+00
  0.00000000E+00  0.00000000E+00  0.00000000E+00
  0.00000000E+00  0.00000000E+00  0.00000000E+00
  0.00000000E+00  0.00000000E+00  0.00000000E+00
  0.00000000E+00  0.00000000E+00  0.00000000E+00
