 C  N Mn  H  O                          
   1.00000000000000     
     8.4011236000000000    0.0000000000000000    0.0000000000000000
     0.0000000000000000    8.4011677999999996    0.0000000000000000
     0.0000000000000000    0.0000000000000000   30.0000000000000000
   C    N    Mn   H    O 
    20     4     1    48    24
Direct
  0.5773572550321370  0.8840551228870939  0.1254388474703176
  0.4311245039739943  0.9663179550605145  0.1263426999221434
  0.7236705724890714  0.9662165850406461  0.1250127226293606
  0.8734098623486017  0.7159467178695643  0.1247763869987146
  0.8734649417134102  0.8817214126110244  0.1251447476339000
  0.9935485446761744  0.0037673689826763  0.1264298720392413
  0.9107326518665884  0.1509050029591573  0.1263242204611643
  0.2812037144463276  0.8816815981740448  0.1261818270198579
  0.1609043052403704  1.0038526819074525  0.1272770766911568
  0.2439464260930763  0.1513034641254779  0.1278858751435442
  0.1628003352206084  0.2989656956374425  0.1272907938865926
  0.2437160445142928  0.4466823887637525  0.1268842499461127
  0.4308330311647843  0.6312599321822566  0.1254864008705248
  0.2810412436606874  0.7158748970711879  0.1258136060347682
  0.1609363828563133  0.5938112174566167  0.1266211802757362
  0.7235508722888582  0.6313079369229403  0.1240590074312930
  0.9106920399993818  0.4463385415354506  0.1255176774964336
  0.9936883416981699  0.5938112511824958  0.1261344242220854
  0.5771736673276386  0.7134177073087812  0.1249230108466223
  0.9916821829729608  0.2985777750498718  0.1264663652031848
  0.7457735423925579  0.1279628084648282  0.1254727102789596
  0.4091988342315960  0.1282209804023662  0.1276634602240555
  0.4087137749425128  0.4695137559785937  0.1261371259665401
  0.7457381414892937  0.4695560124709638  0.1240630908567513
  0.5781110732513710  0.2992991131685844  0.1318433142827350
  0.1250353202746953  0.1397592805348173  0.2492239546322628
  0.1501744871755185  0.0571624304695268  0.2024483508459866
  0.5114970499168261 -0.0051559370424967  0.2642106787778208
  0.6925280454062007  0.9969700929201936  0.2540232383295033
  0.4977186132747267  0.7913508893126958  0.5135073010532923
  0.6020164342781464  0.9358674947109584  0.5304801414524094
  0.0161989810718471  0.8646116719649591  0.3485195534320734
  0.8442446150787249  0.9209476035049037  0.3616990275408806
  0.3010047221586792  0.4687215961988189  0.2577010961474815
  0.4632857788392492  0.4755954986903283  0.2322752010852967
  0.3752551362644750  0.7393952424849178  0.2640884728937211
  0.2704763901361423  0.8977465573247507  0.2602475560565276
  0.8777314133974977  0.6036463900378790  0.4927200871690843
  0.7502154349194929  0.6789331664308343  0.5237810025885452
  0.8603508610457938  0.6242167902755242  0.2387355932278155
  0.9315869773026682  0.5202470219230551  0.2007901438339528
  0.9119112625743981  0.1922816143711190  0.4789083768496522
  0.9414181168470677  0.1795475203144707  0.4276200264313741
  0.5420858006414666  0.1936926348244635  0.4134524898183838
  0.4272254191953731  0.2508016971174131  0.4514627329598310
  0.1585789998129505  0.3246564772183674  0.4631376349496666
  0.2659927395298612  0.4791468532310450  0.4749016194976924
  0.6017819058646930  0.2248874018164874  0.2242031938894031
  0.7034477253768195  0.3835269075951541  0.2142270251238797
  0.2599606263494554  0.8260937131707284  0.3836393620579587
  0.2792605022217372  0.7944978316044558  0.3314844941057843
  0.2326487097660726  0.6894364949263536  0.5267512386311289
  0.2707215874856538  0.7686312386702998  0.4800954404049915
  0.9935452270351338  0.6596441568217440  0.5581097142261544
  0.1143895467372498  0.6298675378743488  0.5970984682529682
  0.2674185764147974  0.5372251337836650  0.3610994041818317
  0.2604934698903897  0.4019281652727564  0.3964099766944574
  0.7800284963370303  0.8111963993854800  0.4289219779761262
  0.6416085267549877  0.9305369298332630  0.4351765502148767
  0.6626703927099967  0.2387608136413243  0.4911269333390593
  0.7601371287714124  0.3645676693836910  0.5189625956078313
  0.1579613132825436  0.0072651978776243  0.4467910014083483
  0.3438710355367999  0.0093186135302965  0.4425077512654437
  0.6841016817764516  0.4606735673839960  0.3593103709146909
  0.6669540523864240  0.6441788331871230  0.3697316091454729
  0.4605462089442415  0.3223193885255649  0.3495360969662593
  0.5854002470057973  0.2100777746511023  0.3252081906955170
  0.9435605225422105  0.9029987255988018  0.2390848507574134
  0.8732090839888109  0.8591688925481391  0.2847816266879052
  0.0408931281511018  0.6604795209273969  0.4216591794521375
  0.8743077506074686  0.5871065808504574  0.4094111099700122
  0.1404405727644240  0.3544286590358167  0.3082856441788237
  0.0330682108384970  0.4042767330789530  0.2668138168107271
  0.1284685965678116  0.0353459894946209  0.2339330538306558
  0.6020079384027339  0.0694048880347269  0.2602460799005804
  0.6057077188115991  0.8383348707976521  0.5129790681004913
  0.9274106453890208  0.9328093731424789  0.3389389575184390
  0.3929535034016143  0.5380833887914886  0.2516488111059825
  0.3562420469400608  0.8462099187273266  0.2776657072027968
  0.8323927574277237  0.5943108889577436  0.5230497069466142
  0.8785047325910663  0.5116062197923569  0.2298143568866269
  0.9967103883259295  0.1716932188438639  0.4561025255411498
  0.5103483257503398  0.1701216361374870  0.4444812383406892
  0.2621703727632964  0.3774830801124945  0.4582290238088634
  0.6065252748766217  0.3239334725217125  0.2053238509237681
  0.2261888617564839  0.7555212848124740  0.3592374751662405
  0.3039204722387627  0.6815818814567196  0.5003180185899538
  0.0939307589355655  0.6995320548695775  0.5718474308580695
  0.2716913814605064  0.4198789519399420  0.3639972041847099
  0.7032033658086033  0.8759349390987077  0.4122049663971203
  0.7502097831949183  0.2497472491822949  0.5127552643010488
  0.2503797089445040  0.9382546735353141  0.4406995861166197
  0.7446108094748333  0.5587560976494053  0.3659531636098310
  0.5676055435238776  0.2730592990728899  0.3523242441445064
  0.8540954180362880  0.8431673399815183  0.2522927782638638
  0.9375735167468153  0.6346526325273057  0.4344040696581312
  0.1275499440582507  0.3422261895125562  0.2759177422390102
 
  0.00000000E+00  0.00000000E+00  0.00000000E+00
  0.00000000E+00  0.00000000E+00  0.00000000E+00
  0.00000000E+00  0.00000000E+00  0.00000000E+00
  0.00000000E+00  0.00000000E+00  0.00000000E+00
  0.00000000E+00  0.00000000E+00  0.00000000E+00
  0.00000000E+00  0.00000000E+00  0.00000000E+00
  0.00000000E+00  0.00000000E+00  0.00000000E+00
  0.00000000E+00  0.00000000E+00  0.00000000E+00
  0.00000000E+00  0.00000000E+00  0.00000000E+00
  0.00000000E+00  0.00000000E+00  0.00000000E+00
  0.00000000E+00  0.00000000E+00  0.00000000E+00
  0.00000000E+00  0.00000000E+00  0.00000000E+00
  0.00000000E+00  0.00000000E+00  0.00000000E+00
  0.00000000E+00  0.00000000E+00  0.00000000E+00
  0.00000000E+00  0.00000000E+00  0.00000000E+00
  0.00000000E+00  0.00000000E+00  0.00000000E+00
  0.00000000E+00  0.00000000E+00  0.00000000E+00
  0.00000000E+00  0.00000000E+00  0.00000000E+00
  0.00000000E+00  0.00000000E+00  0.00000000E+00
  0.00000000E+00  0.00000000E+00  0.00000000E+00
  0.00000000E+00  0.00000000E+00  0.00000000E+00
  0.00000000E+00  0.00000000E+00  0.00000000E+00
  0.00000000E+00  0.00000000E+00  0.00000000E+00
  0.00000000E+00  0.00000000E+00  0.00000000E+00
  0.00000000E+00  0.00000000E+00  0.00000000E+00
  0.00000000E+00  0.00000000E+00  0.00000000E+00
  0.00000000E+00  0.00000000E+00  0.00000000E+00
  0.00000000E+00  0.00000000E+00  0.00000000E+00
  0.00000000E+00  0.00000000E+00  0.00000000E+00
  0.00000000E+00  0.00000000E+00  0.00000000E+00
  0.00000000E+00  0.00000000E+00  0.00000000E+00
  0.00000000E+00  0.00000000E+00  0.00000000E+00
  0.00000000E+00  0.00000000E+00  0.00000000E+00
  0.00000000E+00  0.00000000E+00  0.00000000E+00
  0.00000000E+00  0.00000000E+00  0.00000000E+00
  0.00000000E+00  0.00000000E+00  0.00000000E+00
  0.00000000E+00  0.00000000E+00  0.00000000E+00
  0.00000000E+00  0.00000000E+00  0.00000000E+00
  0.00000000E+00  0.00000000E+00  0.00000000E+00
  0.00000000E+00  0.00000000E+00  0.00000000E+00
  0.00000000E+00  0.00000000E+00  0.00000000E+00
  0.00000000E+00  0.00000000E+00  0.00000000E+00
  0.00000000E+00  0.00000000E+00  0.00000000E+00
  0.00000000E+00  0.00000000E+00  0.00000000E+00
  0.00000000E+00  0.00000000E+00  0.00000000E+00
  0.00000000E+00  0.00000000E+00  0.00000000E+00
  0.00000000E+00  0.00000000E+00  0.00000000E+00
  0.00000000E+00  0.00000000E+00  0.00000000E+00
  0.00000000E+00  0.00000000E+00  0.00000000E+00
  0.00000000E+00  0.00000000E+00  0.00000000E+00
  0.00000000E+00  0.00000000E+00  0.00000000E+00
  0.00000000E+00  0.00000000E+00  0.00000000E+00
  0.00000000E+00  0.00000000E+00  0.00000000E+00
  0.00000000E+00  0.00000000E+00  0.00000000E+00
  0.00000000E+00  0.00000000E+00  0.00000000E+00
  0.00000000E+00  0.00000000E+00  0.00000000E+00
  0.00000000E+00  0.00000000E+00  0.00000000E+00
  0.00000000E+00  0.00000000E+00  0.00000000E+00
  0.00000000E+00  0.00000000E+00  0.00000000E+00
  0.00000000E+00  0.00000000E+00  0.00000000E+00
  0.00000000E+00  0.00000000E+00  0.00000000E+00
  0.00000000E+00  0.00000000E+00  0.00000000E+00
  0.00000000E+00  0.00000000E+00  0.00000000E+00
  0.00000000E+00  0.00000000E+00  0.00000000E+00
  0.00000000E+00  0.00000000E+00  0.00000000E+00
  0.00000000E+00  0.00000000E+00  0.00000000E+00
  0.00000000E+00  0.00000000E+00  0.00000000E+00
  0.00000000E+00  0.00000000E+00  0.00000000E+00
  0.00000000E+00  0.00000000E+00  0.00000000E+00
  0.00000000E+00  0.00000000E+00  0.00000000E+00
  0.00000000E+00  0.00000000E+00  0.00000000E+00
  0.00000000E+00  0.00000000E+00  0.00000000E+00
  0.00000000E+00  0.00000000E+00  0.00000000E+00
  0.00000000E+00  0.00000000E+00  0.00000000E+00
  0.00000000E+00  0.00000000E+00  0.00000000E+00
  0.00000000E+00  0.00000000E+00  0.00000000E+00
  0.00000000E+00  0.00000000E+00  0.00000000E+00
  0.00000000E+00  0.00000000E+00  0.00000000E+00
  0.00000000E+00  0.00000000E+00  0.00000000E+00
  0.00000000E+00  0.00000000E+00  0.00000000E+00
  0.00000000E+00  0.00000000E+00  0.00000000E+00
  0.00000000E+00  0.00000000E+00  0.00000000E+00
  0.00000000E+00  0.00000000E+00  0.00000000E+00
  0.00000000E+00  0.00000000E+00  0.00000000E+00
  0.00000000E+00  0.00000000E+00  0.00000000E+00
  0.00000000E+00  0.00000000E+00  0.00000000E+00
  0.00000000E+00  0.00000000E+00  0.00000000E+00
  0.00000000E+00  0.00000000E+00  0.00000000E+00
  0.00000000E+00  0.00000000E+00  0.00000000E+00
  0.00000000E+00  0.00000000E+00  0.00000000E+00
  0.00000000E+00  0.00000000E+00  0.00000000E+00
  0.00000000E+00  0.00000000E+00  0.00000000E+00
  0.00000000E+00  0.00000000E+00  0.00000000E+00
  0.00000000E+00  0.00000000E+00  0.00000000E+00
  0.00000000E+00  0.00000000E+00  0.00000000E+00
  0.00000000E+00  0.00000000E+00  0.00000000E+00
  0.00000000E+00  0.00000000E+00  0.00000000E+00
