 C Fe  H  N  O                          
   1.00000000000000     
     8.3960796999999996    0.0000000000000000    0.0000000000000000
     0.0000000000000000    8.3961237999999998    0.0000000000000000
     0.0000000000000000    0.0000000000000000   30.0000000000000000
   C    Fe   H    N    O 
    20     1    48     4    24
Direct
  0.4916695872939201  0.0845093286780449  0.0738885155454013
  0.3451187937971086  0.1667496883467122  0.0744053691333175
  0.6373485487180410  0.1676172578482363  0.0734768469010159
  0.7875690888722171  0.9126666954952312  0.0738274798095058
  0.7876756526159651  0.0836461268908750  0.0736969418398658
  0.9057844797370785  0.2020815558263766  0.0738715124146806
  0.8222209506665407  0.3522225749179826  0.0736606643026009
  0.1956532313556660  0.0834272831041389  0.0737848206968007
  0.0769975818125620  0.2022969607997910  0.0742081233562653
  0.1600892538876036  0.3515571189059959  0.0748766505490184
  0.0779804717246032  0.4982992889532282  0.0741966098818768
  0.1609110613682428  0.6441543590901317  0.0732869171868786
  0.3457266188297379  0.8287905638327160  0.0731533125002197
  0.1954332154069361  0.9124483326113448  0.0732031799875391
  0.0771631568551863  0.7942200955865124  0.0732624860450963
  0.6380284168637926  0.8291300101647283  0.0743588884508352
  0.8226340204857591  0.6448086450996767  0.0744545100911571
  0.9061286283421790  0.7940793697294641  0.0737677081151606
  0.4916039789614026  0.9116144846360287  0.0738099037027076
  0.9049939642943784  0.4982176925990905  0.0741662250640305
  0.4919698451529377  0.4987911793662685  0.0744447896177260
  0.1022424822928620  0.9701503075628564  0.2026055332331259
  1.0203322830462069  0.0581294485614793  0.1633514610806407
  0.5960898241383392  0.0400365067227580  0.4560362612650331
  0.6409031381045289  0.0780191025873689  0.5059109501616283
  0.1762128117992185  1.0112895119429872  0.5446974977588097
  0.2621001280848912  0.1281189123144075  0.5116347609798008
  0.0717036110433028  0.1809072659960391  0.3012311991939977
  0.0973805362754729  0.2520440036077847  0.2541296027693687
  0.8305208543784806  0.1335731346910659  0.2706996536352162
  0.7478067998469954 -0.0043862560045844  0.2977267814432851
  0.7925612411685430  0.7384220282982311  0.3255360910793204
  0.8762200161682504  0.8768734009699094  0.3503066020328461
  0.5447807286656798  0.7550000216920483  0.2800094278080245
  0.3952831287728277  0.7142835122839257  0.3087270472620225
  0.1882223681465226  0.9696329371590130  0.3594227371605869
  0.1444309442753366  0.9204045582924685  0.3117408293863660
  0.6734950618221445  0.3026886848998099  0.4652135021687786
  0.7836722429728379  0.4528156141680497  0.4624382344743213
  0.5463158590044283  0.3806445223972484  0.4023491876852837
  0.4685120523613722  0.3318136788382886  0.3554598161544714
  0.6075820454714282 -0.0003362498662180  0.5821202560539909
  0.4538660296442130  0.0606780582591230  0.5565497085277717
  0.6042300871275318  0.6070389586685756  0.2092788435466970
  0.5410116661245046  0.4846410358077614  0.2441324558570985
  0.8028550640208014  0.8453594475912677  0.1907519592266710
  0.6947987518033568  0.9211103312130750  0.2253790433510960
  0.5782114272525498  0.2151653803674987  0.2895870271191100
  0.3953105511177974  0.2130948803046007  0.2858680410010528
  0.9420338279785653  0.0977582942561151  0.5712784316712071
  0.0091424007238152  0.9809926487824697  0.6070943320393158
  0.8927201484893044  0.3604444561088104  0.5431729740898471
  0.7441599844061985  0.2691634409835546  0.5625543969230162
  0.3022270212240110  0.2971744776627711  0.1539157705235998
  0.4028012526307714  0.3641448442758330  0.1926935064144402
  0.9984936299786391  0.6060273746198334  0.5065077987673851
  0.0819244330582387  0.4500208257515486  0.4891617249779441
  0.3412015473859014  0.4232305458524680  0.4993972279336724
  0.3110312146904651  0.3483342471850688  0.4523456614781598
  0.7935255980271217  0.5457248158764761  0.2607751521885632
  0.9163614462446116  0.4744215609401199  0.2935919690047004
  0.4547334378893308  0.6745752604086415  0.5204342303318498
  0.5622576384769282  0.5350912200249947  0.5023303831144906
  0.3485912347579639  0.9259434167964518  0.2505022719690231
  0.3365166752804213  0.0808206225329274  0.2195298206789900
  0.3543477524678149  0.5701398247559253  0.3757955035162131
  0.3682231395164104  0.7534173549145837  0.3852031841564351
  0.4556972407449751  0.1009309361466072  0.3926967350275027
  0.5619688936690390  0.9574038637678574  0.3778269235759042
  0.6580681350976775  0.3315227965376487  0.0729687663800632
  0.3247058190871591  0.3310627366001155  0.0758104908389891
  0.3251990828866170  0.6648154052644878  0.0727320040763939
  0.6583680999483214  0.6652434203372859  0.0751511080118408
  0.0173546258659166  0.9592453474397460  0.1802150047873574
  0.6732521032991524  0.0968450136586789  0.4746226951353326
  0.2761383642190492  0.0268884335608264  0.5275821066070260
  0.0247704666200083  0.2552300202232814  0.2795298639206311
  0.7287667640290184  0.0759923653375272  0.2740716241100096
  0.7706197752805479  0.8416016499019111  0.3404287021253987
  0.4297707895736544  0.7427383676443376  0.2780618170846104
  0.1056888383434301  0.9836100044811676  0.3368126285278188
  0.6730295405111283  0.4187267708844259  0.4575358595825645
  0.4462095099096020  0.3481170738957725  0.3877739930138888
  0.5674874172505280  0.0860338660815307  0.5636911329935861
  0.5970756979398173  0.4921340716639414  0.2155812788706341
  0.6968580776598836  0.8322584633015441  0.2040055889297300
  0.4823771819398727  0.2803830603564111  0.2966800440014928
  0.9885056317587545  0.9889271738406535  0.5752670694475124
  0.8580261532227352  0.2874429130569662  0.5669374360212752
  0.3130475836512231  0.2923702790143460  0.1862456529935710
  0.9767426018848455  0.4975521573111751  0.4968144482508157
  0.2688377721722679  0.3503828089576879  0.4827159366361410
  0.8455385619408121  0.5659231886179870  0.2894353895888471
  0.4782055844573327  0.5617575780218284  0.5242896080465100
  0.2840377929800747  0.0214393685848281  0.2435793128093825
  0.3211580006791111  0.6755219162202107  0.3648963845673177
  0.4699079281785578  0.9852808357512246  0.3963168376509761
 
  0.00000000E+00  0.00000000E+00  0.00000000E+00
  0.00000000E+00  0.00000000E+00  0.00000000E+00
  0.00000000E+00  0.00000000E+00  0.00000000E+00
  0.00000000E+00  0.00000000E+00  0.00000000E+00
  0.00000000E+00  0.00000000E+00  0.00000000E+00
  0.00000000E+00  0.00000000E+00  0.00000000E+00
  0.00000000E+00  0.00000000E+00  0.00000000E+00
  0.00000000E+00  0.00000000E+00  0.00000000E+00
  0.00000000E+00  0.00000000E+00  0.00000000E+00
  0.00000000E+00  0.00000000E+00  0.00000000E+00
  0.00000000E+00  0.00000000E+00  0.00000000E+00
  0.00000000E+00  0.00000000E+00  0.00000000E+00
  0.00000000E+00  0.00000000E+00  0.00000000E+00
  0.00000000E+00  0.00000000E+00  0.00000000E+00
  0.00000000E+00  0.00000000E+00  0.00000000E+00
  0.00000000E+00  0.00000000E+00  0.00000000E+00
  0.00000000E+00  0.00000000E+00  0.00000000E+00
  0.00000000E+00  0.00000000E+00  0.00000000E+00
  0.00000000E+00  0.00000000E+00  0.00000000E+00
  0.00000000E+00  0.00000000E+00  0.00000000E+00
  0.00000000E+00  0.00000000E+00  0.00000000E+00
  0.00000000E+00  0.00000000E+00  0.00000000E+00
  0.00000000E+00  0.00000000E+00  0.00000000E+00
  0.00000000E+00  0.00000000E+00  0.00000000E+00
  0.00000000E+00  0.00000000E+00  0.00000000E+00
  0.00000000E+00  0.00000000E+00  0.00000000E+00
  0.00000000E+00  0.00000000E+00  0.00000000E+00
  0.00000000E+00  0.00000000E+00  0.00000000E+00
  0.00000000E+00  0.00000000E+00  0.00000000E+00
  0.00000000E+00  0.00000000E+00  0.00000000E+00
  0.00000000E+00  0.00000000E+00  0.00000000E+00
  0.00000000E+00  0.00000000E+00  0.00000000E+00
  0.00000000E+00  0.00000000E+00  0.00000000E+00
  0.00000000E+00  0.00000000E+00  0.00000000E+00
  0.00000000E+00  0.00000000E+00  0.00000000E+00
  0.00000000E+00  0.00000000E+00  0.00000000E+00
  0.00000000E+00  0.00000000E+00  0.00000000E+00
  0.00000000E+00  0.00000000E+00  0.00000000E+00
  0.00000000E+00  0.00000000E+00  0.00000000E+00
  0.00000000E+00  0.00000000E+00  0.00000000E+00
  0.00000000E+00  0.00000000E+00  0.00000000E+00
  0.00000000E+00  0.00000000E+00  0.00000000E+00
  0.00000000E+00  0.00000000E+00  0.00000000E+00
  0.00000000E+00  0.00000000E+00  0.00000000E+00
  0.00000000E+00  0.00000000E+00  0.00000000E+00
  0.00000000E+00  0.00000000E+00  0.00000000E+00
  0.00000000E+00  0.00000000E+00  0.00000000E+00
  0.00000000E+00  0.00000000E+00  0.00000000E+00
  0.00000000E+00  0.00000000E+00  0.00000000E+00
  0.00000000E+00  0.00000000E+00  0.00000000E+00
  0.00000000E+00  0.00000000E+00  0.00000000E+00
  0.00000000E+00  0.00000000E+00  0.00000000E+00
  0.00000000E+00  0.00000000E+00  0.00000000E+00
  0.00000000E+00  0.00000000E+00  0.00000000E+00
  0.00000000E+00  0.00000000E+00  0.00000000E+00
  0.00000000E+00  0.00000000E+00  0.00000000E+00
  0.00000000E+00  0.00000000E+00  0.00000000E+00
  0.00000000E+00  0.00000000E+00  0.00000000E+00
  0.00000000E+00  0.00000000E+00  0.00000000E+00
  0.00000000E+00  0.00000000E+00  0.00000000E+00
  0.00000000E+00  0.00000000E+00  0.00000000E+00
  0.00000000E+00  0.00000000E+00  0.00000000E+00
  0.00000000E+00  0.00000000E+00  0.00000000E+00
  0.00000000E+00  0.00000000E+00  0.00000000E+00
  0.00000000E+00  0.00000000E+00  0.00000000E+00
  0.00000000E+00  0.00000000E+00  0.00000000E+00
  0.00000000E+00  0.00000000E+00  0.00000000E+00
  0.00000000E+00  0.00000000E+00  0.00000000E+00
  0.00000000E+00  0.00000000E+00  0.00000000E+00
  0.00000000E+00  0.00000000E+00  0.00000000E+00
  0.00000000E+00  0.00000000E+00  0.00000000E+00
  0.00000000E+00  0.00000000E+00  0.00000000E+00
  0.00000000E+00  0.00000000E+00  0.00000000E+00
  0.00000000E+00  0.00000000E+00  0.00000000E+00
  0.00000000E+00  0.00000000E+00  0.00000000E+00
  0.00000000E+00  0.00000000E+00  0.00000000E+00
  0.00000000E+00  0.00000000E+00  0.00000000E+00
  0.00000000E+00  0.00000000E+00  0.00000000E+00
  0.00000000E+00  0.00000000E+00  0.00000000E+00
  0.00000000E+00  0.00000000E+00  0.00000000E+00
  0.00000000E+00  0.00000000E+00  0.00000000E+00
  0.00000000E+00  0.00000000E+00  0.00000000E+00
  0.00000000E+00  0.00000000E+00  0.00000000E+00
  0.00000000E+00  0.00000000E+00  0.00000000E+00
  0.00000000E+00  0.00000000E+00  0.00000000E+00
  0.00000000E+00  0.00000000E+00  0.00000000E+00
  0.00000000E+00  0.00000000E+00  0.00000000E+00
  0.00000000E+00  0.00000000E+00  0.00000000E+00
  0.00000000E+00  0.00000000E+00  0.00000000E+00
  0.00000000E+00  0.00000000E+00  0.00000000E+00
  0.00000000E+00  0.00000000E+00  0.00000000E+00
  0.00000000E+00  0.00000000E+00  0.00000000E+00
  0.00000000E+00  0.00000000E+00  0.00000000E+00
  0.00000000E+00  0.00000000E+00  0.00000000E+00
  0.00000000E+00  0.00000000E+00  0.00000000E+00
  0.00000000E+00  0.00000000E+00  0.00000000E+00
  0.00000000E+00  0.00000000E+00  0.00000000E+00
