 C  N Cu  H  O                          
   1.00000000000000     
     8.4140850000000000    0.0000000000000000    0.0000000000000000
     0.0000000000000000    8.4141290000000009    0.0000000000000000
     0.0000000000000000    0.0000000000000000   30.0000000000000000
   C    N    Cu   H    O 
    20     4     1    47    24
Direct
  0.4187199516024229  0.9781070410229976  0.1285817325718940
  0.2716119855609253  0.0603389082610359  0.1273212206681061
  0.5657314143359499  0.0603182369397718  0.1292282692039539
  0.7149535687791067  0.8105498986097610  0.1296895364618307
  0.7149230268237797  0.9746644746293620  0.1296773162599336
  0.8363638515096817  0.0962353638560316  0.1288468964624247
  0.7510993904307961  0.2454784604977847  0.1283997605972608
  0.1221704359510475  0.9746616977845571  0.1283426095278449
  0.0007590359721511  0.0964623402818945  0.1279329262559853
  0.0864386478506882  0.2453883771338658  0.1262451021579227
  0.0045072071848939  0.3926720587974762  0.1264775207603061
  0.0861892836953661  0.5403189216097042  0.1260550153721855
  0.2712634385773908  0.7254082545644174  0.1267041969255032
  0.1219969734764032  0.8109095010141274  0.1282721772511929
  0.0004299824911383  0.6890188415651516  0.1282450094134185
  0.5657086116596051  0.7250159680751848  0.1289880473906909
  0.7510526464602908  0.5397397745382213  0.1284665312146863
  0.8364942324863194  0.6890538805619626  0.1291917902820687
  0.4186307420773575  0.8071828891398762  0.1282729429806416
  0.8333747003285121  0.3925368865581347  0.1277920798253311
  0.5890718933279834  0.2220227202285183  0.1268177137557173
  0.2481858402808633  0.2211332301577732  0.1235769847901361
  0.2474417553689034  0.5646337291753507  0.1222136838870797
  0.5894812533381539  0.5633169878193363  0.1263464502582587
  0.4180767979434000  0.3942960889268387  0.1367429046674061
  0.8878367966368474  0.8998291674808107  0.3581683376329191
  0.7495860725366528  0.8906686284203320  0.3238075047334685
  0.7708222276848771  0.5798690160651995  0.2669846353719217
  0.6978425178530158  0.7491545607234588  0.2561087312061476
  0.3911857059295085  0.3774231343221475  0.4597717530548076
  0.3342076174622933  0.4493151116466553  0.5045090188038254
  0.5375991095217845  0.6313749927667398  0.2969985866381432
  0.4740049657058721  0.6893096165279331  0.3448337422133986
  0.4369820726569654  0.2185686690009876  0.2966443009351480
  0.3567970046308007  0.0987189968777258  0.2639235576002822
  0.2662300512067384  0.5755512742745909  0.2322330599695738
  0.2806681946742494  0.6447466857502124  0.2802543154914708
  0.0396240488708327  0.4127303217496803  0.3887637634202996
  0.0146097702300915  0.3868939678357616  0.3369463102235296
  0.7904282728899359  0.0323986572740496  0.2556570099748063
  0.6093628944003565  0.0350012080465337  0.2677635730923221
  0.4135564008068983  0.4367224715339403  0.3362614417034122
  0.2804415667439625  0.3249522054452568  0.3547720882114256
  0.5877582336158456  0.6191703843384494  0.4138358213412907
  0.6577349336597099  0.7759739253345810  0.3897201578717557
  0.5490068243670148  0.5423071307978216  0.5416635263525806
  0.4044126462090506  0.6028307943747013  0.5702173316917207
  0.0408116915244560  0.5243305494049226  0.2717628184903977
  0.9510902609914389  0.3615692091590113  0.2641999682255025
  0.1710250684072051  0.1784074455921548  0.4832290335374554
  0.1526077912138521  0.0119619927251639  0.4607070548351448
  0.8109641381761604  0.5321791016112306  0.5355090235427981
  0.7481761801900086  0.3632948167453791  0.5214772608733967
  0.8075933400400843  0.7863008704732961  0.5037594226612974
  0.9848106228860027  0.8136540582401817  0.5176992892668398
  0.0705769619848049  0.1180951119529269  0.3623321861972393
  0.1497853921051268  0.9535946733310320  0.3773341077543390
  0.9992087409182512  0.6122341462389931  0.4607572709086643
  0.1480184580872863  0.5002832593535125  0.4542774451821903
  0.7138608650898077  0.0993636367864137  0.4855042511085067
  0.8858260484727533  0.1602324279736967  0.4753725118857154
  0.5243046579045000  0.3480528945062429  0.3969169165337161
  0.6504599077837040  0.3230259886396987  0.4364338191152621
  0.5448681341167907  0.8140071551257664  0.5118856724069021
  0.5970327778077680  0.8267184741406348  0.4621341252337119
  0.0411012501876863  0.0954533305673292  0.2444372318003847
  0.9519052078798421  0.1707856909330225  0.2033735790626444
  0.1828412708727721  0.7434774333199393  0.4250784738279294
  0.3534202221056719  0.8150660178311069  0.4166274174302086
  0.1490519595856324  0.9761630205245398  0.2992032954922478
  0.1842963287569838  0.8622659722477395  0.2577439966462297
  0.4196251610839957  0.3577201056727140  0.2229784968577493
  0.7855562372033686  0.8460495182796793  0.3526043714593636
  0.6733482762375508  0.6343239603603358  0.2566854785358046
  0.2970508043146258  0.3811508352613551  0.4797823031230874
  0.4441272918321083  0.6286686177304878  0.3182959425652668
  0.4512948113805089  0.1679924598989800  0.2669535020316890
  0.2076245313923216  0.6439629693483849  0.2542753836355086
  0.0632662528778696  0.3394133802907350  0.3640806834747288
  0.7045037677896657  0.9640816713676283  0.2671868596861048
  0.3955072423651622  0.3264032098246591  0.3475629516710614
  0.5685374639176261  0.7337055641109299  0.4088543997871731
  0.4444469164683032  0.6003080184567224  0.5398089497129789
  0.9501271798517666  0.4589298975922660  0.2826452431100356
  0.0982122162886516  0.0873979443968362  0.4805492852979165
  0.7300931849479273  0.4519737645828618  0.5424362060810167
  0.9099757208056884  0.7300375554649463  0.5095973143281193
  0.0824769063647408  1.0048886847433118  0.3541560697422018
  0.0700879800449975  0.5674133378012860  0.4377465672906513
  0.7739096322105322  0.1957126836422790  0.4780205577388254
  0.5676316403570649  0.3947262529775268  0.4247524354759437
  0.6195461380263900  0.8703350779050971  0.4923392173751157
  0.9497076246761920  0.1660375478167652  0.2357571375342460
  0.2413162438878717  0.8451793286504338  0.4204389019187128
  0.1784507727280226  0.9752701048298146  0.2668922994065361
  0.3578625094322963  0.4236247433317668  0.2021366688062498
 
  0.00000000E+00  0.00000000E+00  0.00000000E+00
  0.00000000E+00  0.00000000E+00  0.00000000E+00
  0.00000000E+00  0.00000000E+00  0.00000000E+00
  0.00000000E+00  0.00000000E+00  0.00000000E+00
  0.00000000E+00  0.00000000E+00  0.00000000E+00
  0.00000000E+00  0.00000000E+00  0.00000000E+00
  0.00000000E+00  0.00000000E+00  0.00000000E+00
  0.00000000E+00  0.00000000E+00  0.00000000E+00
  0.00000000E+00  0.00000000E+00  0.00000000E+00
  0.00000000E+00  0.00000000E+00  0.00000000E+00
  0.00000000E+00  0.00000000E+00  0.00000000E+00
  0.00000000E+00  0.00000000E+00  0.00000000E+00
  0.00000000E+00  0.00000000E+00  0.00000000E+00
  0.00000000E+00  0.00000000E+00  0.00000000E+00
  0.00000000E+00  0.00000000E+00  0.00000000E+00
  0.00000000E+00  0.00000000E+00  0.00000000E+00
  0.00000000E+00  0.00000000E+00  0.00000000E+00
  0.00000000E+00  0.00000000E+00  0.00000000E+00
  0.00000000E+00  0.00000000E+00  0.00000000E+00
  0.00000000E+00  0.00000000E+00  0.00000000E+00
  0.00000000E+00  0.00000000E+00  0.00000000E+00
  0.00000000E+00  0.00000000E+00  0.00000000E+00
  0.00000000E+00  0.00000000E+00  0.00000000E+00
  0.00000000E+00  0.00000000E+00  0.00000000E+00
  0.00000000E+00  0.00000000E+00  0.00000000E+00
  0.00000000E+00  0.00000000E+00  0.00000000E+00
  0.00000000E+00  0.00000000E+00  0.00000000E+00
  0.00000000E+00  0.00000000E+00  0.00000000E+00
  0.00000000E+00  0.00000000E+00  0.00000000E+00
  0.00000000E+00  0.00000000E+00  0.00000000E+00
  0.00000000E+00  0.00000000E+00  0.00000000E+00
  0.00000000E+00  0.00000000E+00  0.00000000E+00
  0.00000000E+00  0.00000000E+00  0.00000000E+00
  0.00000000E+00  0.00000000E+00  0.00000000E+00
  0.00000000E+00  0.00000000E+00  0.00000000E+00
  0.00000000E+00  0.00000000E+00  0.00000000E+00
  0.00000000E+00  0.00000000E+00  0.00000000E+00
  0.00000000E+00  0.00000000E+00  0.00000000E+00
  0.00000000E+00  0.00000000E+00  0.00000000E+00
  0.00000000E+00  0.00000000E+00  0.00000000E+00
  0.00000000E+00  0.00000000E+00  0.00000000E+00
  0.00000000E+00  0.00000000E+00  0.00000000E+00
  0.00000000E+00  0.00000000E+00  0.00000000E+00
  0.00000000E+00  0.00000000E+00  0.00000000E+00
  0.00000000E+00  0.00000000E+00  0.00000000E+00
  0.00000000E+00  0.00000000E+00  0.00000000E+00
  0.00000000E+00  0.00000000E+00  0.00000000E+00
  0.00000000E+00  0.00000000E+00  0.00000000E+00
  0.00000000E+00  0.00000000E+00  0.00000000E+00
  0.00000000E+00  0.00000000E+00  0.00000000E+00
  0.00000000E+00  0.00000000E+00  0.00000000E+00
  0.00000000E+00  0.00000000E+00  0.00000000E+00
  0.00000000E+00  0.00000000E+00  0.00000000E+00
  0.00000000E+00  0.00000000E+00  0.00000000E+00
  0.00000000E+00  0.00000000E+00  0.00000000E+00
  0.00000000E+00  0.00000000E+00  0.00000000E+00
  0.00000000E+00  0.00000000E+00  0.00000000E+00
  0.00000000E+00  0.00000000E+00  0.00000000E+00
  0.00000000E+00  0.00000000E+00  0.00000000E+00
  0.00000000E+00  0.00000000E+00  0.00000000E+00
  0.00000000E+00  0.00000000E+00  0.00000000E+00
  0.00000000E+00  0.00000000E+00  0.00000000E+00
  0.00000000E+00  0.00000000E+00  0.00000000E+00
  0.00000000E+00  0.00000000E+00  0.00000000E+00
  0.00000000E+00  0.00000000E+00  0.00000000E+00
  0.00000000E+00  0.00000000E+00  0.00000000E+00
  0.00000000E+00  0.00000000E+00  0.00000000E+00
  0.00000000E+00  0.00000000E+00  0.00000000E+00
  0.00000000E+00  0.00000000E+00  0.00000000E+00
  0.00000000E+00  0.00000000E+00  0.00000000E+00
  0.00000000E+00  0.00000000E+00  0.00000000E+00
  0.00000000E+00  0.00000000E+00  0.00000000E+00
  0.00000000E+00  0.00000000E+00  0.00000000E+00
  0.00000000E+00  0.00000000E+00  0.00000000E+00
  0.00000000E+00  0.00000000E+00  0.00000000E+00
  0.00000000E+00  0.00000000E+00  0.00000000E+00
  0.00000000E+00  0.00000000E+00  0.00000000E+00
  0.00000000E+00  0.00000000E+00  0.00000000E+00
  0.00000000E+00  0.00000000E+00  0.00000000E+00
  0.00000000E+00  0.00000000E+00  0.00000000E+00
  0.00000000E+00  0.00000000E+00  0.00000000E+00
  0.00000000E+00  0.00000000E+00  0.00000000E+00
  0.00000000E+00  0.00000000E+00  0.00000000E+00
  0.00000000E+00  0.00000000E+00  0.00000000E+00
  0.00000000E+00  0.00000000E+00  0.00000000E+00
  0.00000000E+00  0.00000000E+00  0.00000000E+00
  0.00000000E+00  0.00000000E+00  0.00000000E+00
  0.00000000E+00  0.00000000E+00  0.00000000E+00
  0.00000000E+00  0.00000000E+00  0.00000000E+00
  0.00000000E+00  0.00000000E+00  0.00000000E+00
  0.00000000E+00  0.00000000E+00  0.00000000E+00
  0.00000000E+00  0.00000000E+00  0.00000000E+00
  0.00000000E+00  0.00000000E+00  0.00000000E+00
  0.00000000E+00  0.00000000E+00  0.00000000E+00
  0.00000000E+00  0.00000000E+00  0.00000000E+00
  0.00000000E+00  0.00000000E+00  0.00000000E+00
