 C Fe  H  N  O                          
   1.00000000000000     
     8.3960796999999996    0.0000000000000000    0.0000000000000000
     0.0000000000000000    8.3961237999999998    0.0000000000000000
     0.0000000000000000    0.0000000000000000   30.0000000000000000
   C    Fe   H    N    O 
    20     1    46     4    24
Direct
  0.5246603346220817  0.0681117967348347  0.0962340080817863
  0.3780210041342900  0.1504015167125540  0.0950219345941209
  0.6713428169854188  0.1504485411490667  0.0956584296437816
  0.8206915971211367  0.8995741517332022  0.0956346854898296
  0.8206864115069058  0.0651877791469071  0.0950000810792167
  0.9419131305280936  0.1865465216272455  0.0941237429232616
  0.8565954003148620  0.3359405977995773  0.0948166560777212
  0.2286052865602438  0.0651610092080609  0.0944266108430238
  0.1074548133053149  0.1864872118527640  0.0937241568890724
  0.1925984726025617  0.3359920605429896  0.0939985311235657
  0.1102988429451582  0.4825127456170417  0.0948565811956650
  0.1926011613511812  0.6291564844526875  0.0954153275016053
  0.3779918860140929  0.8143036559774448  0.0962589076009609
  0.2286322556205024  0.8997081345150894  0.0951459142485155
  0.1073750734790635  0.7785358068891951  0.0950875990757269
  0.6712052834072292  0.8141828970275828  0.0967352715206626
  0.8565065245486119  0.6289908969885653  0.0959701578811328
  0.9418892272588673  0.7785098434690064  0.0953635585148860
  0.5246721774910168  0.8966572247533435  0.0968489430557845
  0.9389882428587168  0.4824918658986933  0.0952782683424504
  0.5237419258930229  0.4802203961252402  0.1047757257713103
  0.9789272595629774  0.0604764544514768  0.1734591186454756
  0.0573802556564849  0.1698658726361356  0.2086836084281638
  0.4257413352900457  0.0376197707316200  0.3405582401269425
  0.5634596625800540  0.0217304361336074  0.3755630690602987
  0.1678912464402884  0.0252095696862044  0.4625725952076103
  0.0400991611739367  0.1107218733451021  0.4918385929962146
  0.3279994864573494  0.2720265642650881  0.3291119493874897
  0.3836271278180731  0.2029693084481071  0.2831738780178010
  0.8487288358510711  0.9877743974920310  0.2411821136218054
  0.7765690318446036  0.9002938166539005  0.2831823687092532
  0.9249559315880366  0.6967013101716388  0.3535871210297498
  0.7545539071415904  0.7295743266668308  0.3712568909265912
  0.2616339289610098  0.6628302982569054  0.2638022278468549
  0.2396500470861513  0.5481082623821553  0.3034419381689675
  0.1363118995517936  0.7376790571395276  0.3999541147434397
  0.1873146710997999  0.5723900019844584  0.3799717244240458
  0.4812607705732645  0.3831540825604091  0.4701650886530827
  0.3147821232428389  0.2988202135593552  0.4682685948276234
  0.7024159527187217  0.5762182246911006  0.3157744513777208
  0.6360809419722123  0.4199240383304762  0.2903665357710467
  0.7616972534014057  0.4366486188021452  0.4971669256194651
  0.6170523499396663  0.5161351757664240  0.5202247027931045
  0.5798661960911996  0.2784356941914972  0.2219651816899318
  0.6425816486178578  0.1430937054137480  0.2545007627629240
  0.8783853766211996  0.9661801759809433  0.3583716862948296
  0.9283592708366555  0.1441878325205061  0.3491470972233203
  0.6516930454410456  0.1750370323850274  0.5303529313925965
  0.7419488461287407  0.0644722242808266  0.5627259279034681
  0.0135106553560949  0.5507474439649386  0.4441873815795691
  0.0167761113980037  0.6077148209315777  0.4934024474963815
  0.2622469685306619  0.3969304941354952  0.1893785175482350
  0.1590383839597092  0.4437863471694927  0.2298871757831483
  0.5993093684775203  0.7021608883005955  0.4463369405238032
  0.7691514448751011  0.6314052136751210  0.4432632535546101
  0.1483261408214104  0.8714903846949700  0.5188302732730184
  0.1451643082687938  0.7589013042179962  0.5605126387776647
  0.9906462013709442  0.3891353871572428  0.3007719441052677
  0.0960978906650426  0.2379213468304483  0.2982107004971824
  0.3992936424616531  0.7381194525462270  0.5172769749477438
  0.5542762616430552  0.8405988285013019  0.5218417375975865
  0.5225801097671611  0.6522481628198485  0.2610804381593206
  0.5323982816393892  0.8202858580090918  0.2407068249638250
  0.3810236865942586  0.4150986106378284  0.3954131836283554
  0.4603417693717253  0.4813629410049440  0.3504025872912747
  0.2928795874242150  0.9578464780099025  0.3961874160969345
  0.1045538017263521  0.9974153393459237  0.3939174066168683
  0.6934527405454165  0.3135560694609007  0.0951116956335941
  0.3557966767725641  0.3135359668759922  0.0941137355571290
  0.3558327152328172  0.6510698869709095  0.0959628250790279
  0.6932960890142156  0.6508750847903541  0.0966422809699426
  0.0082572572435298  0.0638313167441249  0.2047635786953314
  0.4707124429799929  0.9662239913814480  0.3637368442738354
  0.1476234769778742  0.0672662046238416  0.4934734823027991
  0.3096769024620379  0.1820783525295978  0.3080832596833885
  0.7475445718667002  0.9575104182792433  0.2559828130982795
  0.8211020466638271  0.7409253954054462  0.3439881067178563
  0.1846493090208633  0.5869239617211010  0.2769445696795267
  0.0941478578052630  0.6313525737194267  0.3912858034527079
  0.3791865689030393  0.3812007598494824  0.4540346294781747
  0.6061227064072793  0.5192439432341938  0.3056702150138120
  0.6605474131163143  0.4112850445034928  0.5121439657529122
  0.5176466868624700  0.4655234498386005  0.1593342233893233
  0.5761003120094257  0.2411586007024827  0.2527117891005114
  0.9161380422653111  0.0638815016823420  0.3730451454392011
  0.6700076121801143  0.0621368078670275  0.5373571388425559
  0.9555881849152260  0.5401456666240653  0.4728907887518362
  0.1577191002809099  0.3777105972784601  0.2025317771220349
  0.6771167924060633  0.6616927274514618  0.4248238670413018
  0.1630568584030463  0.7586184365452162  0.5284917424032610
  0.9842285528760804  0.2733462261917482  0.3013330630678704
  0.5153181390234541  0.7354147747946905  0.5128489399146310
  0.4648139293747818  0.7255617455302295  0.2410515280477694
  0.3597363662074097  0.4413019966009184  0.3635880070147470
  0.1888480802517305  0.9416500395279903  0.4115005137629859
 
  0.00000000E+00  0.00000000E+00  0.00000000E+00
  0.00000000E+00  0.00000000E+00  0.00000000E+00
  0.00000000E+00  0.00000000E+00  0.00000000E+00
  0.00000000E+00  0.00000000E+00  0.00000000E+00
  0.00000000E+00  0.00000000E+00  0.00000000E+00
  0.00000000E+00  0.00000000E+00  0.00000000E+00
  0.00000000E+00  0.00000000E+00  0.00000000E+00
  0.00000000E+00  0.00000000E+00  0.00000000E+00
  0.00000000E+00  0.00000000E+00  0.00000000E+00
  0.00000000E+00  0.00000000E+00  0.00000000E+00
  0.00000000E+00  0.00000000E+00  0.00000000E+00
  0.00000000E+00  0.00000000E+00  0.00000000E+00
  0.00000000E+00  0.00000000E+00  0.00000000E+00
  0.00000000E+00  0.00000000E+00  0.00000000E+00
  0.00000000E+00  0.00000000E+00  0.00000000E+00
  0.00000000E+00  0.00000000E+00  0.00000000E+00
  0.00000000E+00  0.00000000E+00  0.00000000E+00
  0.00000000E+00  0.00000000E+00  0.00000000E+00
  0.00000000E+00  0.00000000E+00  0.00000000E+00
  0.00000000E+00  0.00000000E+00  0.00000000E+00
  0.00000000E+00  0.00000000E+00  0.00000000E+00
  0.00000000E+00  0.00000000E+00  0.00000000E+00
  0.00000000E+00  0.00000000E+00  0.00000000E+00
  0.00000000E+00  0.00000000E+00  0.00000000E+00
  0.00000000E+00  0.00000000E+00  0.00000000E+00
  0.00000000E+00  0.00000000E+00  0.00000000E+00
  0.00000000E+00  0.00000000E+00  0.00000000E+00
  0.00000000E+00  0.00000000E+00  0.00000000E+00
  0.00000000E+00  0.00000000E+00  0.00000000E+00
  0.00000000E+00  0.00000000E+00  0.00000000E+00
  0.00000000E+00  0.00000000E+00  0.00000000E+00
  0.00000000E+00  0.00000000E+00  0.00000000E+00
  0.00000000E+00  0.00000000E+00  0.00000000E+00
  0.00000000E+00  0.00000000E+00  0.00000000E+00
  0.00000000E+00  0.00000000E+00  0.00000000E+00
  0.00000000E+00  0.00000000E+00  0.00000000E+00
  0.00000000E+00  0.00000000E+00  0.00000000E+00
  0.00000000E+00  0.00000000E+00  0.00000000E+00
  0.00000000E+00  0.00000000E+00  0.00000000E+00
  0.00000000E+00  0.00000000E+00  0.00000000E+00
  0.00000000E+00  0.00000000E+00  0.00000000E+00
  0.00000000E+00  0.00000000E+00  0.00000000E+00
  0.00000000E+00  0.00000000E+00  0.00000000E+00
  0.00000000E+00  0.00000000E+00  0.00000000E+00
  0.00000000E+00  0.00000000E+00  0.00000000E+00
  0.00000000E+00  0.00000000E+00  0.00000000E+00
  0.00000000E+00  0.00000000E+00  0.00000000E+00
  0.00000000E+00  0.00000000E+00  0.00000000E+00
  0.00000000E+00  0.00000000E+00  0.00000000E+00
  0.00000000E+00  0.00000000E+00  0.00000000E+00
  0.00000000E+00  0.00000000E+00  0.00000000E+00
  0.00000000E+00  0.00000000E+00  0.00000000E+00
  0.00000000E+00  0.00000000E+00  0.00000000E+00
  0.00000000E+00  0.00000000E+00  0.00000000E+00
  0.00000000E+00  0.00000000E+00  0.00000000E+00
  0.00000000E+00  0.00000000E+00  0.00000000E+00
  0.00000000E+00  0.00000000E+00  0.00000000E+00
  0.00000000E+00  0.00000000E+00  0.00000000E+00
  0.00000000E+00  0.00000000E+00  0.00000000E+00
  0.00000000E+00  0.00000000E+00  0.00000000E+00
  0.00000000E+00  0.00000000E+00  0.00000000E+00
  0.00000000E+00  0.00000000E+00  0.00000000E+00
  0.00000000E+00  0.00000000E+00  0.00000000E+00
  0.00000000E+00  0.00000000E+00  0.00000000E+00
  0.00000000E+00  0.00000000E+00  0.00000000E+00
  0.00000000E+00  0.00000000E+00  0.00000000E+00
  0.00000000E+00  0.00000000E+00  0.00000000E+00
  0.00000000E+00  0.00000000E+00  0.00000000E+00
  0.00000000E+00  0.00000000E+00  0.00000000E+00
  0.00000000E+00  0.00000000E+00  0.00000000E+00
  0.00000000E+00  0.00000000E+00  0.00000000E+00
  0.00000000E+00  0.00000000E+00  0.00000000E+00
  0.00000000E+00  0.00000000E+00  0.00000000E+00
  0.00000000E+00  0.00000000E+00  0.00000000E+00
  0.00000000E+00  0.00000000E+00  0.00000000E+00
  0.00000000E+00  0.00000000E+00  0.00000000E+00
  0.00000000E+00  0.00000000E+00  0.00000000E+00
  0.00000000E+00  0.00000000E+00  0.00000000E+00
  0.00000000E+00  0.00000000E+00  0.00000000E+00
  0.00000000E+00  0.00000000E+00  0.00000000E+00
  0.00000000E+00  0.00000000E+00  0.00000000E+00
  0.00000000E+00  0.00000000E+00  0.00000000E+00
  0.00000000E+00  0.00000000E+00  0.00000000E+00
  0.00000000E+00  0.00000000E+00  0.00000000E+00
  0.00000000E+00  0.00000000E+00  0.00000000E+00
  0.00000000E+00  0.00000000E+00  0.00000000E+00
  0.00000000E+00  0.00000000E+00  0.00000000E+00
  0.00000000E+00  0.00000000E+00  0.00000000E+00
  0.00000000E+00  0.00000000E+00  0.00000000E+00
  0.00000000E+00  0.00000000E+00  0.00000000E+00
  0.00000000E+00  0.00000000E+00  0.00000000E+00
  0.00000000E+00  0.00000000E+00  0.00000000E+00
  0.00000000E+00  0.00000000E+00  0.00000000E+00
  0.00000000E+00  0.00000000E+00  0.00000000E+00
  0.00000000E+00  0.00000000E+00  0.00000000E+00
