 C  H  N Ni  O                          
   1.00000000000000     
     8.3752332000000003    0.0000000000000000    0.0000000000000000
     0.0000000000000000    8.3752771999999993    0.0000000000000000
     0.0000000000000000    0.0000000000000000   30.0000000000000000
   C    H    N    Ni   O 
    20    45     4     1    24
Direct
  0.1413427905160915  0.0287190412567080  0.0855957706061885
  0.9942135059042124  0.1107533895215488  0.0850951662668933
  0.2887579662197557  0.1103476764204167  0.0863059471311798
  0.4357437856827659  0.8595653262670915  0.0861039731396879
  0.4355673646935175  0.0261038954420993  0.0860357979893276
  0.5591580270230986  0.1457290132678078  0.0862555016351799
  0.4713592882020713  0.2982236098439218  0.0871361029986362
  0.8467374712423321  0.0262629474353943  0.0850115606856957
  0.7234389465720849  0.1458975755193553  0.0856727812265607
  0.8114045868433356  0.2982618255694695  0.0860343758792205
  0.7270161958259884  0.4428994140669031  0.0868352713009537
  0.8112950365254444  0.5875037838968794  0.0861726960048609
  0.9940814618802736  0.7749192743692526  0.0853537766199771
  0.8468495297784122  0.8594153493710586  0.0851942930949436
  0.7233550858285336  0.7396523239831406  0.0857440182456930
  0.2882653709333000  0.7749631073184468  0.0863712831044642
  0.4712655716339857  0.5874611158138205  0.0872011530705961
  0.5588997810763235  0.7398499661150352  0.0863451004557313
  0.1413649830712412  0.8569879845138294  0.0856667381953761
  0.5557931551155051  0.4429623574911582  0.0873811554689090
  0.3871237844155918  0.0701584346075870  0.4349463120306511
  0.2754572965877011  0.2026153652665405  0.4135827328794313
  0.3426669091277640  0.9213726239410290  0.2187064006353278
  0.2988485682619873  0.7757976040813384  0.2471322274627982
  0.5613953450729363  0.5804669974794224  0.5106681817135992
  0.6981056381931143  0.4553383114399283  0.5171081716113268
  0.6518323211309116  0.4809878381888794  0.3998113638488204
  0.7915693909988174  0.3602670621238787  0.4045531681385316
  0.9051110044541421  0.8139155875795318  0.2983380232781281
  0.9115246807241362  0.6380558159013305  0.3174355238101308
  0.3380922826943222  0.7628662834679520  0.5020339909491650
  0.4600855795900557  0.7813645291330564  0.4632843523563709
  0.1551207444902449  0.4583826453514026  0.4278627726238438
  0.1221688905343770  0.3833729058199841  0.3802406939718035
  0.4033143680294068  0.7358781048977173  0.3456675861322834
  0.3228294267535225  0.8916822275533189  0.3632151333083075
  0.4828901108136587  0.1271934121081930  0.3659115567695639
  0.5135116512703549  0.0697753694778174  0.3186157062338130
  1.0016312034294947  0.8643269355477174  0.1992859222563285
  0.8802444374343589  0.8862851481058724  0.1612397143193255
  0.1032716959788652  0.9683186062727107  0.2676213183600085
  0.9396221049260064  0.0452567304492778  0.2575650502811961
  0.1630271911090498  0.3599226591576098  0.2324707353072672
  0.2933963898021252  0.3725106134915538  0.2694499657642696
  0.5013662421812819  0.3839658241368752  0.3448181164181234
  0.3769391760656384  0.4696094342112043  0.3748695027540057
  0.9192100983257986  0.2653990105268258  0.5273741893624758
  0.8616662142452576  0.1967498614422091  0.4825904113138889
  0.8290250051240916  0.9152517798922474  0.5183848618415933
  0.7764150106206341  0.7308767172711856  0.5152742764202540
  0.8297099794647611  0.0497398339508986  0.4180008427682861
  0.0152574753965436  0.0772969533809655  0.4200420723671746
  0.6705333846100916  0.6399139733043995  0.2707485420728573
  0.5193266681734301  0.5695546645952650  0.2912944325295236
  0.7068801452278606  0.2453193732766366  0.2838003404122821
  0.6602720333532728  0.3764961046905934  0.2502722745607032
  0.6256415258967768  0.9416146421177787  0.2050801008746032
  0.5845927637248804  0.1103081757997217  0.2220815920969552
  0.9587013872652537  0.2273687780937210  0.3412773021065121
  0.0442483145766948  0.3437183840306564  0.3087799092619961
  0.6448103559888613  0.8362751091358115  0.4053120956635353
  0.7082800318211913  0.8613940929339789  0.4547211306291309
  0.9078040920838480  0.5202808893336829  0.4526948391768805
  0.0112998167099300  0.6426996441886489  0.4783339206197403
  0.0549144086912323  0.5768591984206627  0.2179864294632097
  0.3109442463077098  0.2770593338857819  0.0871357817138295
  0.9716582770558054  0.2768734535184338  0.0853353951985455
  0.9717492492233476  0.6089264388344464  0.0857943752778431
  0.3105267959882618  0.6086523603058595  0.0871738555073726
  0.1411715807407692  0.4426968517642434  0.0880468478161855
  0.3052914462270410  0.0871415898907463  0.4123446632543529
  0.2492217603702383  0.8567182001030252  0.2282755142390148
  0.6584507891847052  0.5579317371024489  0.5281147557378888
  0.7355078003662839  0.4449342849439037  0.4205258265633541
  0.8393708684104060  0.7195360005288000  0.3060440909528525
  0.3958205043906041  0.7020795883385433  0.4795721801166355
  0.2074398412203255  0.3993569650035058  0.4030521379158957
  0.3700449197373881  0.8429078063818372  0.3367289460649355
  0.5417283531818190  0.1569133418514105  0.3388162758812132
  0.8912517987193010  0.8958315842126877  0.1935026006882452
  0.0049154734707859  0.0068089945458387  0.2823767801577801
  0.1822465818476613  0.3979328202039137  0.2632107175410529
  0.4749265528023911  0.4903171246110542  0.3567828170448113
  0.8338143371377916  0.2014083686317391  0.5144553740299039
  0.8327288348100637  0.8198625549012023  0.4995963077914897
  0.9124297775076791  0.1323150961367029  0.4199865718212019
  0.5721711567474449  0.5816355897433216  0.2624004271635229
  0.7000647541503364  0.2652822299504459  0.2518366071886957
  0.5365003366333887  0.0162729942130032  0.2072470725462943
  0.9838664539623231  0.3402161985535211  0.3371200259684020
  0.6315307406930387  0.9026495840702536  0.4317743253764688
  0.0121610470585711  0.5325669864107964  0.4677301230344547
  0.0700860871111386  0.4099193204145425  0.1756220499635966
 -0.0032444288438218  0.5472507545991779  0.1903308177073536
 
  0.00000000E+00  0.00000000E+00  0.00000000E+00
  0.00000000E+00  0.00000000E+00  0.00000000E+00
  0.00000000E+00  0.00000000E+00  0.00000000E+00
  0.00000000E+00  0.00000000E+00  0.00000000E+00
  0.00000000E+00  0.00000000E+00  0.00000000E+00
  0.00000000E+00  0.00000000E+00  0.00000000E+00
  0.00000000E+00  0.00000000E+00  0.00000000E+00
  0.00000000E+00  0.00000000E+00  0.00000000E+00
  0.00000000E+00  0.00000000E+00  0.00000000E+00
  0.00000000E+00  0.00000000E+00  0.00000000E+00
  0.00000000E+00  0.00000000E+00  0.00000000E+00
  0.00000000E+00  0.00000000E+00  0.00000000E+00
  0.00000000E+00  0.00000000E+00  0.00000000E+00
  0.00000000E+00  0.00000000E+00  0.00000000E+00
  0.00000000E+00  0.00000000E+00  0.00000000E+00
  0.00000000E+00  0.00000000E+00  0.00000000E+00
  0.00000000E+00  0.00000000E+00  0.00000000E+00
  0.00000000E+00  0.00000000E+00  0.00000000E+00
  0.00000000E+00  0.00000000E+00  0.00000000E+00
  0.00000000E+00  0.00000000E+00  0.00000000E+00
  0.00000000E+00  0.00000000E+00  0.00000000E+00
  0.00000000E+00  0.00000000E+00  0.00000000E+00
  0.00000000E+00  0.00000000E+00  0.00000000E+00
  0.00000000E+00  0.00000000E+00  0.00000000E+00
  0.00000000E+00  0.00000000E+00  0.00000000E+00
  0.00000000E+00  0.00000000E+00  0.00000000E+00
  0.00000000E+00  0.00000000E+00  0.00000000E+00
  0.00000000E+00  0.00000000E+00  0.00000000E+00
  0.00000000E+00  0.00000000E+00  0.00000000E+00
  0.00000000E+00  0.00000000E+00  0.00000000E+00
  0.00000000E+00  0.00000000E+00  0.00000000E+00
  0.00000000E+00  0.00000000E+00  0.00000000E+00
  0.00000000E+00  0.00000000E+00  0.00000000E+00
  0.00000000E+00  0.00000000E+00  0.00000000E+00
  0.00000000E+00  0.00000000E+00  0.00000000E+00
  0.00000000E+00  0.00000000E+00  0.00000000E+00
  0.00000000E+00  0.00000000E+00  0.00000000E+00
  0.00000000E+00  0.00000000E+00  0.00000000E+00
  0.00000000E+00  0.00000000E+00  0.00000000E+00
  0.00000000E+00  0.00000000E+00  0.00000000E+00
  0.00000000E+00  0.00000000E+00  0.00000000E+00
  0.00000000E+00  0.00000000E+00  0.00000000E+00
  0.00000000E+00  0.00000000E+00  0.00000000E+00
  0.00000000E+00  0.00000000E+00  0.00000000E+00
  0.00000000E+00  0.00000000E+00  0.00000000E+00
  0.00000000E+00  0.00000000E+00  0.00000000E+00
  0.00000000E+00  0.00000000E+00  0.00000000E+00
  0.00000000E+00  0.00000000E+00  0.00000000E+00
  0.00000000E+00  0.00000000E+00  0.00000000E+00
  0.00000000E+00  0.00000000E+00  0.00000000E+00
  0.00000000E+00  0.00000000E+00  0.00000000E+00
  0.00000000E+00  0.00000000E+00  0.00000000E+00
  0.00000000E+00  0.00000000E+00  0.00000000E+00
  0.00000000E+00  0.00000000E+00  0.00000000E+00
  0.00000000E+00  0.00000000E+00  0.00000000E+00
  0.00000000E+00  0.00000000E+00  0.00000000E+00
  0.00000000E+00  0.00000000E+00  0.00000000E+00
  0.00000000E+00  0.00000000E+00  0.00000000E+00
  0.00000000E+00  0.00000000E+00  0.00000000E+00
  0.00000000E+00  0.00000000E+00  0.00000000E+00
  0.00000000E+00  0.00000000E+00  0.00000000E+00
  0.00000000E+00  0.00000000E+00  0.00000000E+00
  0.00000000E+00  0.00000000E+00  0.00000000E+00
  0.00000000E+00  0.00000000E+00  0.00000000E+00
  0.00000000E+00  0.00000000E+00  0.00000000E+00
  0.00000000E+00  0.00000000E+00  0.00000000E+00
  0.00000000E+00  0.00000000E+00  0.00000000E+00
  0.00000000E+00  0.00000000E+00  0.00000000E+00
  0.00000000E+00  0.00000000E+00  0.00000000E+00
  0.00000000E+00  0.00000000E+00  0.00000000E+00
  0.00000000E+00  0.00000000E+00  0.00000000E+00
  0.00000000E+00  0.00000000E+00  0.00000000E+00
  0.00000000E+00  0.00000000E+00  0.00000000E+00
  0.00000000E+00  0.00000000E+00  0.00000000E+00
  0.00000000E+00  0.00000000E+00  0.00000000E+00
  0.00000000E+00  0.00000000E+00  0.00000000E+00
  0.00000000E+00  0.00000000E+00  0.00000000E+00
  0.00000000E+00  0.00000000E+00  0.00000000E+00
  0.00000000E+00  0.00000000E+00  0.00000000E+00
  0.00000000E+00  0.00000000E+00  0.00000000E+00
  0.00000000E+00  0.00000000E+00  0.00000000E+00
  0.00000000E+00  0.00000000E+00  0.00000000E+00
  0.00000000E+00  0.00000000E+00  0.00000000E+00
  0.00000000E+00  0.00000000E+00  0.00000000E+00
  0.00000000E+00  0.00000000E+00  0.00000000E+00
  0.00000000E+00  0.00000000E+00  0.00000000E+00
  0.00000000E+00  0.00000000E+00  0.00000000E+00
  0.00000000E+00  0.00000000E+00  0.00000000E+00
  0.00000000E+00  0.00000000E+00  0.00000000E+00
  0.00000000E+00  0.00000000E+00  0.00000000E+00
  0.00000000E+00  0.00000000E+00  0.00000000E+00
  0.00000000E+00  0.00000000E+00  0.00000000E+00
  0.00000000E+00  0.00000000E+00  0.00000000E+00
  0.00000000E+00  0.00000000E+00  0.00000000E+00
