 C Co  H  N  O                          
   1.00000000000000     
     8.3817804000000002    0.0000000000000000    0.0000000000000000
     0.0000000000000000    8.3818243999999993    0.0000000000000000
     0.0000000000000000    0.0000000000000000   30.0000000000000000
   C    Co   H    N    O 
    20     1    44     4    23
Direct
  0.2061131325967078  0.4889862316396553  0.1142009572389148
  0.0597711561094236  0.5720030001004284  0.1132629365554668
  0.3523410634468563  0.5721232503893773  0.1143486562144991
  0.5029102428795406  0.3174302921305709  0.1154526614914321
  0.5028652041753395  0.4874785594556518  0.1151334980311371
  0.6210504906782964  0.6056560457547223  0.1150139739993704
  0.5365080435246689  0.7564444090343652  0.1145785589483225
  0.9092336929394542  0.4873516839066935  0.1145285533283436
  0.7909573711774778  0.6056190623669505  0.1145792436180997
  0.8755470282825647  0.7562540303677724  0.1134471647816789
  0.7926635286607223  0.9025170131505353  0.1147165265107467
  0.8757851461796916  0.0487531816384530  0.1148621328006197
  0.0600083299063209  0.2328877101316563  0.1145465393190189
  0.9092791677407849  0.3174217431638473  0.1150247075207055
  0.7910809564092054  0.1993803569894152  0.1154012394872975
  0.3522320007151674  0.2329180623398567  0.1152882735584372
  0.5364316490457002  0.0487047443723926  0.1156006790929033
  0.6210718462054646  0.1994355989713839  0.1156216472611440
  0.2061513851089926  0.3160120256553646  0.1147800695923936
  0.6196940835798346  0.9025711508998718  0.1152535575034460
  0.2046372117426523  0.9012502255864072  0.1254444882523656
  0.6101986408363880  0.8737483940613286  0.4292385335687076
  0.5727803121479581  0.0192222807087805  0.3985840184326051
  0.5807655215416555  0.9941724627372127  0.2300124615272255
  0.7293989261749944  0.0674099247587596  0.2523812553617581
  0.2026682691952405  0.6062514311369098  0.3773438940587411
  0.1951912369160689  0.4846392654838787  0.3376943040203534
  0.0876260062954240  0.8276135235408856  0.2742775838398765
  0.0723985064924469  0.7265621436071867  0.3187680160227614
  0.8482299600644461  0.4860101266858605  0.2666061861466427
  0.8048323373537172  0.6517038079433144  0.2440102051422344
  0.3080302039198485  0.2749249136981852  0.2252103286955349
  0.2236178787017767  0.1097762346817229  0.2208005139543220
  0.5884015748123897  0.4353538924693291  0.2406727253094708
  0.5755436999924183  0.2506456147303542  0.2310135775451772
  0.6279028901088600  0.6574465177939720  0.3073165995098984
  0.5675355739129209  0.7684781995024892  0.3466956055754218
  0.0595027843726841  0.3048689503998682  0.2585868436184573
  0.9279377654694030  0.2539402300225650  0.2927781672658607
  0.0489670252251912  0.2411584321940799  0.4199086740963978
  0.1664175275947624  0.1080991996795834  0.4007734185755801
  0.4215654200690225  0.3373043212944390  0.2961393514502868
  0.3269228661142937  0.2223512670173182  0.3280765901254081
  0.7938816249621257  0.9185704082943277  0.4876498128666235
  0.7747162726890876  0.7383375319511627  0.4812344963203369
  0.5487990255403928  0.2824271621123574  0.3624629712477256
  0.7079701312741840  0.3018689579686974  0.3914113622646053
  0.9778159276273826  0.4696367699821338  0.3865571648174670
  0.9220583127908182  0.4844333077478238  0.4359162027182672
  0.1847021354441184  0.9574823802979698  0.3335019941421747
  0.3428535075516874  0.9568766082373316  0.3618496590204381
  0.0283185559468691  0.7628945935220630  0.5060551077042175
  0.0459026620199075  0.5762257522904765  0.5145562925573488
  0.7480064167265916  0.1181326664564698  0.3359054045228034
  0.8727477593717785  0.9874657641576180  0.3172633630901829
  0.0479657289364274  0.0509200202580356  0.4741940820947154
  0.0111052108566354  0.0983147164165163  0.5228948888883579
  0.1394724668047379  0.3618488028131184  0.5706096735220448
  0.1946636988418527  0.3578016887968591  0.5204802395904623
  0.3593179923239698  0.7613842918690550  0.4279562645086913
  0.2069105279066655  0.6875398951508616  0.4519557748884016
  0.3489426733406756  0.8331405315291820  0.2289567787488707
  0.4468892103407808  0.8149903016985049  0.2749302939996776
  0.2832324826252102  0.2811499894457837  0.4578605844682762
  0.3468832667310088  0.4551639643067312  0.4632267809207804
  0.3737308076787261  0.7350013314271266  0.1125451328526562
  0.0381115932568073  0.7345527703359352  0.1106414399797826
  0.0385505600094854  0.0700960542863543  0.1128567907540231
  0.3734932500552033  0.0698350749676998  0.1141852617324647
  0.5473365212970536  0.9050360386790106  0.4024277958461300
  0.6730801909821238  0.0648585219945906  0.2234817887518998
  0.1316895215039736  0.5666201136002564  0.3532992648585007
  0.0462516329451663  0.8314476842615366  0.3046105199385421
  0.7580193671165913  0.5626551246945396  0.2601113777965295
  0.2035965925149141  0.2246052814928599  0.2197835171677337
  0.5106060955870894  0.3476586448510961  0.2378222771569992
  0.5327587028751712  0.7073272926630546  0.3205198353829579
  0.9846583810239209  0.3486340864859837  0.2810768967130757
  0.1279769164957204  0.1592678335096984  0.4286673555279523
  0.3765746307659482  0.3288473039729722  0.3265613643401214
  0.7133253211271064  0.8372565612489855  0.4799246139217578
  0.6356019632606249  0.2234139498693454  0.3779296039169044
  0.9128442364018204  0.4151341100198531  0.4098629843018070
  0.2542590298817876  0.0249513991937266  0.3525878032239330
  0.0251757449269978  0.6577936936711446  0.4915664119588700
  0.8113194655607879  0.0830474093104843  0.3097115061041320
  0.0007723560111979  0.0085547890169567  0.5022905683355700
  0.0979753763369701  0.3630547959457268  0.5403308021228036
  0.2926340479404150  0.6657059954826787  0.4302991973169891
  0.4116115814251693  0.8904015987502710  0.2513213877952627
  0.3366892958891777  0.3535561925470924  0.4792008547732726
  0.1913767009777831  0.8841239522724872  0.1822788556489258
 
  0.00000000E+00  0.00000000E+00  0.00000000E+00
  0.00000000E+00  0.00000000E+00  0.00000000E+00
  0.00000000E+00  0.00000000E+00  0.00000000E+00
  0.00000000E+00  0.00000000E+00  0.00000000E+00
  0.00000000E+00  0.00000000E+00  0.00000000E+00
  0.00000000E+00  0.00000000E+00  0.00000000E+00
  0.00000000E+00  0.00000000E+00  0.00000000E+00
  0.00000000E+00  0.00000000E+00  0.00000000E+00
  0.00000000E+00  0.00000000E+00  0.00000000E+00
  0.00000000E+00  0.00000000E+00  0.00000000E+00
  0.00000000E+00  0.00000000E+00  0.00000000E+00
  0.00000000E+00  0.00000000E+00  0.00000000E+00
  0.00000000E+00  0.00000000E+00  0.00000000E+00
  0.00000000E+00  0.00000000E+00  0.00000000E+00
  0.00000000E+00  0.00000000E+00  0.00000000E+00
  0.00000000E+00  0.00000000E+00  0.00000000E+00
  0.00000000E+00  0.00000000E+00  0.00000000E+00
  0.00000000E+00  0.00000000E+00  0.00000000E+00
  0.00000000E+00  0.00000000E+00  0.00000000E+00
  0.00000000E+00  0.00000000E+00  0.00000000E+00
  0.00000000E+00  0.00000000E+00  0.00000000E+00
  0.00000000E+00  0.00000000E+00  0.00000000E+00
  0.00000000E+00  0.00000000E+00  0.00000000E+00
  0.00000000E+00  0.00000000E+00  0.00000000E+00
  0.00000000E+00  0.00000000E+00  0.00000000E+00
  0.00000000E+00  0.00000000E+00  0.00000000E+00
  0.00000000E+00  0.00000000E+00  0.00000000E+00
  0.00000000E+00  0.00000000E+00  0.00000000E+00
  0.00000000E+00  0.00000000E+00  0.00000000E+00
  0.00000000E+00  0.00000000E+00  0.00000000E+00
  0.00000000E+00  0.00000000E+00  0.00000000E+00
  0.00000000E+00  0.00000000E+00  0.00000000E+00
  0.00000000E+00  0.00000000E+00  0.00000000E+00
  0.00000000E+00  0.00000000E+00  0.00000000E+00
  0.00000000E+00  0.00000000E+00  0.00000000E+00
  0.00000000E+00  0.00000000E+00  0.00000000E+00
  0.00000000E+00  0.00000000E+00  0.00000000E+00
  0.00000000E+00  0.00000000E+00  0.00000000E+00
  0.00000000E+00  0.00000000E+00  0.00000000E+00
  0.00000000E+00  0.00000000E+00  0.00000000E+00
  0.00000000E+00  0.00000000E+00  0.00000000E+00
  0.00000000E+00  0.00000000E+00  0.00000000E+00
  0.00000000E+00  0.00000000E+00  0.00000000E+00
  0.00000000E+00  0.00000000E+00  0.00000000E+00
  0.00000000E+00  0.00000000E+00  0.00000000E+00
  0.00000000E+00  0.00000000E+00  0.00000000E+00
  0.00000000E+00  0.00000000E+00  0.00000000E+00
  0.00000000E+00  0.00000000E+00  0.00000000E+00
  0.00000000E+00  0.00000000E+00  0.00000000E+00
  0.00000000E+00  0.00000000E+00  0.00000000E+00
  0.00000000E+00  0.00000000E+00  0.00000000E+00
  0.00000000E+00  0.00000000E+00  0.00000000E+00
  0.00000000E+00  0.00000000E+00  0.00000000E+00
  0.00000000E+00  0.00000000E+00  0.00000000E+00
  0.00000000E+00  0.00000000E+00  0.00000000E+00
  0.00000000E+00  0.00000000E+00  0.00000000E+00
  0.00000000E+00  0.00000000E+00  0.00000000E+00
  0.00000000E+00  0.00000000E+00  0.00000000E+00
  0.00000000E+00  0.00000000E+00  0.00000000E+00
  0.00000000E+00  0.00000000E+00  0.00000000E+00
  0.00000000E+00  0.00000000E+00  0.00000000E+00
  0.00000000E+00  0.00000000E+00  0.00000000E+00
  0.00000000E+00  0.00000000E+00  0.00000000E+00
  0.00000000E+00  0.00000000E+00  0.00000000E+00
  0.00000000E+00  0.00000000E+00  0.00000000E+00
  0.00000000E+00  0.00000000E+00  0.00000000E+00
  0.00000000E+00  0.00000000E+00  0.00000000E+00
  0.00000000E+00  0.00000000E+00  0.00000000E+00
  0.00000000E+00  0.00000000E+00  0.00000000E+00
  0.00000000E+00  0.00000000E+00  0.00000000E+00
  0.00000000E+00  0.00000000E+00  0.00000000E+00
  0.00000000E+00  0.00000000E+00  0.00000000E+00
  0.00000000E+00  0.00000000E+00  0.00000000E+00
  0.00000000E+00  0.00000000E+00  0.00000000E+00
  0.00000000E+00  0.00000000E+00  0.00000000E+00
  0.00000000E+00  0.00000000E+00  0.00000000E+00
  0.00000000E+00  0.00000000E+00  0.00000000E+00
  0.00000000E+00  0.00000000E+00  0.00000000E+00
  0.00000000E+00  0.00000000E+00  0.00000000E+00
  0.00000000E+00  0.00000000E+00  0.00000000E+00
  0.00000000E+00  0.00000000E+00  0.00000000E+00
  0.00000000E+00  0.00000000E+00  0.00000000E+00
  0.00000000E+00  0.00000000E+00  0.00000000E+00
  0.00000000E+00  0.00000000E+00  0.00000000E+00
  0.00000000E+00  0.00000000E+00  0.00000000E+00
  0.00000000E+00  0.00000000E+00  0.00000000E+00
  0.00000000E+00  0.00000000E+00  0.00000000E+00
  0.00000000E+00  0.00000000E+00  0.00000000E+00
  0.00000000E+00  0.00000000E+00  0.00000000E+00
  0.00000000E+00  0.00000000E+00  0.00000000E+00
  0.00000000E+00  0.00000000E+00  0.00000000E+00
  0.00000000E+00  0.00000000E+00  0.00000000E+00
