 C Fe  H  N  O                          
   1.00000000000000     
     8.3960796999999996    0.0000000000000000    0.0000000000000000
     0.0000000000000000    8.3961237999999998    0.0000000000000000
     0.0000000000000000    0.0000000000000000   30.0000000000000000
   C    Fe   H    N    O 
    20     1    47     4    24
Direct
  0.5253334768377679  0.0722642674168712  0.0945725636615099
  0.3785578434941557  0.1546605106906037  0.0940953641010239
  0.6721790387442607  0.1546106673959517  0.0938147445316679
  0.8215000154844219  0.9039770283066882  0.0937650228034595
  0.8213882215040009  0.0692204228674176  0.0933601112232730
  0.9427391938341371  0.1907385244283583  0.0930337915779949
  0.8573662160975360  0.3397869331405631  0.0935586912836125
  0.2292897216131905  0.0692109108743294  0.0934586889198871
  0.1080741678337077  0.1905838486534155  0.0930695791434899
  0.1934782134549331  0.3398138222866235  0.0937309811007902
  0.1109000410067902  0.4866478000982053  0.0945697602393394
  0.1932930601441363  0.6336411375422550  0.0948742300830943
  0.3785134282876038  0.8188674053117498  0.0949448806378124
  0.2293353539141392  0.9040518887052851  0.0939658620648328
  0.1080482999481010  0.7825954376958020  0.0940659413059004
  0.6720250278355209  0.8186825490598202  0.0945120777025441
  0.8572770291337790  0.6334551192302491  0.0943926826193289
  0.9426758677260824  0.7826049953874520  0.0938699785343813
  0.5253554922230524  0.9012581758580600  0.0949692112502998
  0.9396505353810271  0.4866777353961690  0.0943794358870855
  0.5261619764287945  0.4859789748598304  0.1058802664983204
  0.9858816712039803  0.0587854152287130  0.1745236714021302
  0.0590573548313187  0.1697455870433651  0.2100799876292828
  0.4429386648754897  0.0372749633699959  0.3395358588012387
  0.5817587694382149  0.0342633659034200  0.3745373411956005
  0.1753268694678036  0.0204599743389932  0.4643982893758390
  0.0511869019283103  0.1153122317513837  0.4923637625646449
  0.3092430005128880  0.2546021041320998  0.3262229927389830
  0.3653570907624358  0.1903943882266871  0.2799998245481654
  0.8554912660108732  0.9815568374872257  0.2417185780376280
  0.7865180999105337  0.8924295604447086  0.2838955980621662
  0.9311869692253458  0.6934746416369882  0.3535694091013974
  0.7584337608788283  0.7195154431823703  0.3694698201405340
  0.2708876586388806  0.6777684237282828  0.2614937616592025
  0.2467082359414792  0.5616837678647421  0.3007270491042097
  0.1460396928853288  0.7368305495865521  0.3997303833497718
  0.1877227350798208  0.5674051590141639  0.3801426282240221
  0.4818182054505168  0.3972679022647204  0.4732932267958436
  0.2949157018076641  0.3993291053286565  0.4721683458549684
  0.6950184301004996  0.5568263583130358  0.3164796428831161
  0.6199941676728087  0.4085405629015155  0.2894565301575099
  0.7592249158218242  0.4370029561495096  0.5017482988343603
  0.6171792003258735  0.5214527821784065  0.5253005816619867
  0.5223762928237352  0.5653891280160153  0.1870855842861486
  0.5701185398875052  0.2827723419632931  0.2219714687297980
  0.6415817733147210  0.1465303192264219  0.2533125587342284
  0.8818965513956372  0.9656634479969483  0.3580726792776380
  0.9226132432252578  0.1470318518173472  0.3507427968023143
  0.6406247323238465  0.1738625402857474  0.5359688168095187
  0.7655879620630737  0.0598341210430006  0.5559342867391096
  0.0206048637725406  0.5498729134327599  0.4458105516228263
  0.0241961096118258  0.6021525019310550  0.4955256423284050
  0.1434465724462515  0.4311589642536795  0.1785485025632926
  0.1713138883036095  0.4459214102506511  0.2295911794638960
  0.5837837554863166  0.6414810480311015  0.4384203375664927
  0.7647422258134167  0.6059176701305230  0.4424319017368729
  0.1423026935867685  0.8629289423483589  0.5204069517842741
  0.1322050098642825  0.7538176807583779  0.5628209836429079
  0.9783917089462220  0.4054612675839792  0.3023592579003786
  0.0722740830048738  0.2480899225680793  0.2961427862996984
  0.3982284215136562  0.7341901525319530  0.5267455641405624
  0.5541794104478880  0.8348795249147146  0.5304395483532701
  0.5354307463274538  0.6433582110122453  0.2601251129161239
  0.5723089510727846  0.8041000816323499  0.2369881899402726
  0.3757186403625891  0.4064669062034630  0.3942642299148661
  0.4499186544410537  0.4631855190696390  0.3482050724117145
  0.3033305096731451  0.9644569689808922  0.3962921442519475
  0.1150414309627316  0.9992558293141208  0.3935882011886569
  0.6945742048182478  0.3173225818844210  0.0934209716562680
  0.3563128823855834  0.3174623263292596  0.0939513015909241
  0.3564623818047833  0.6558446761431197  0.0953611906096070
  0.6942905036667030  0.6559089245663769  0.0945122076872390
  0.0148401909334505  0.0614322400566635  0.2058801871892602
  0.4886179661048465  0.9752024754236582  0.3643316366128217
  0.1482480234318049  0.0529188043238648  0.4955914455442561
  0.2903027714187640  0.1677762696670061  0.3044638903728386
  0.7553100755833777  0.9499320863023756  0.2568941786115794
  0.8274041584475497  0.7347813648857092  0.3429764314276192
  0.1936387094468477  0.6020813505911279  0.2741080343286180
  0.0990874367715208  0.6314775749955522  0.3921575165475517
  0.3890761358233358  0.4184804836213727  0.4540222449904875
  0.5956422144500821  0.5088549812783310  0.3055262913246722
  0.6558895402411330  0.4156704775150975  0.5158121683019260
  0.5374916958544933  0.4713117561606271  0.1676297734382613
  0.5699487282255309  0.2399256003410802  0.2523708480968022
  0.9160168369527750  0.0628291069340165  0.3736293535784000
  0.6588483789631540  0.0615147354635522  0.5434084111595759
  0.9719145281752124  0.5263153101911296  0.4752075606423299
  0.1571454242008042  0.3675457237366055  0.2053301723773197
  0.6795515729751901  0.6241129200431396  0.4206874929558817
  0.1559684819000611  0.7508052364537846  0.5311058208095801
  0.9655433124001015  0.2902429431568666  0.3031613758146383
  0.5147093408259222  0.7269884321146992  0.5248442777385820
  0.4975147680716534  0.7141525943914219  0.2358934486019666
  0.3500664705001454  0.4251834878720991  0.3623811666772395
  0.1992729853568254  0.9429484763831232  0.4107759954716013
 
  0.00000000E+00  0.00000000E+00  0.00000000E+00
  0.00000000E+00  0.00000000E+00  0.00000000E+00
  0.00000000E+00  0.00000000E+00  0.00000000E+00
  0.00000000E+00  0.00000000E+00  0.00000000E+00
  0.00000000E+00  0.00000000E+00  0.00000000E+00
  0.00000000E+00  0.00000000E+00  0.00000000E+00
  0.00000000E+00  0.00000000E+00  0.00000000E+00
  0.00000000E+00  0.00000000E+00  0.00000000E+00
  0.00000000E+00  0.00000000E+00  0.00000000E+00
  0.00000000E+00  0.00000000E+00  0.00000000E+00
  0.00000000E+00  0.00000000E+00  0.00000000E+00
  0.00000000E+00  0.00000000E+00  0.00000000E+00
  0.00000000E+00  0.00000000E+00  0.00000000E+00
  0.00000000E+00  0.00000000E+00  0.00000000E+00
  0.00000000E+00  0.00000000E+00  0.00000000E+00
  0.00000000E+00  0.00000000E+00  0.00000000E+00
  0.00000000E+00  0.00000000E+00  0.00000000E+00
  0.00000000E+00  0.00000000E+00  0.00000000E+00
  0.00000000E+00  0.00000000E+00  0.00000000E+00
  0.00000000E+00  0.00000000E+00  0.00000000E+00
  0.00000000E+00  0.00000000E+00  0.00000000E+00
  0.00000000E+00  0.00000000E+00  0.00000000E+00
  0.00000000E+00  0.00000000E+00  0.00000000E+00
  0.00000000E+00  0.00000000E+00  0.00000000E+00
  0.00000000E+00  0.00000000E+00  0.00000000E+00
  0.00000000E+00  0.00000000E+00  0.00000000E+00
  0.00000000E+00  0.00000000E+00  0.00000000E+00
  0.00000000E+00  0.00000000E+00  0.00000000E+00
  0.00000000E+00  0.00000000E+00  0.00000000E+00
  0.00000000E+00  0.00000000E+00  0.00000000E+00
  0.00000000E+00  0.00000000E+00  0.00000000E+00
  0.00000000E+00  0.00000000E+00  0.00000000E+00
  0.00000000E+00  0.00000000E+00  0.00000000E+00
  0.00000000E+00  0.00000000E+00  0.00000000E+00
  0.00000000E+00  0.00000000E+00  0.00000000E+00
  0.00000000E+00  0.00000000E+00  0.00000000E+00
  0.00000000E+00  0.00000000E+00  0.00000000E+00
  0.00000000E+00  0.00000000E+00  0.00000000E+00
  0.00000000E+00  0.00000000E+00  0.00000000E+00
  0.00000000E+00  0.00000000E+00  0.00000000E+00
  0.00000000E+00  0.00000000E+00  0.00000000E+00
  0.00000000E+00  0.00000000E+00  0.00000000E+00
  0.00000000E+00  0.00000000E+00  0.00000000E+00
  0.00000000E+00  0.00000000E+00  0.00000000E+00
  0.00000000E+00  0.00000000E+00  0.00000000E+00
  0.00000000E+00  0.00000000E+00  0.00000000E+00
  0.00000000E+00  0.00000000E+00  0.00000000E+00
  0.00000000E+00  0.00000000E+00  0.00000000E+00
  0.00000000E+00  0.00000000E+00  0.00000000E+00
  0.00000000E+00  0.00000000E+00  0.00000000E+00
  0.00000000E+00  0.00000000E+00  0.00000000E+00
  0.00000000E+00  0.00000000E+00  0.00000000E+00
  0.00000000E+00  0.00000000E+00  0.00000000E+00
  0.00000000E+00  0.00000000E+00  0.00000000E+00
  0.00000000E+00  0.00000000E+00  0.00000000E+00
  0.00000000E+00  0.00000000E+00  0.00000000E+00
  0.00000000E+00  0.00000000E+00  0.00000000E+00
  0.00000000E+00  0.00000000E+00  0.00000000E+00
  0.00000000E+00  0.00000000E+00  0.00000000E+00
  0.00000000E+00  0.00000000E+00  0.00000000E+00
  0.00000000E+00  0.00000000E+00  0.00000000E+00
  0.00000000E+00  0.00000000E+00  0.00000000E+00
  0.00000000E+00  0.00000000E+00  0.00000000E+00
  0.00000000E+00  0.00000000E+00  0.00000000E+00
  0.00000000E+00  0.00000000E+00  0.00000000E+00
  0.00000000E+00  0.00000000E+00  0.00000000E+00
  0.00000000E+00  0.00000000E+00  0.00000000E+00
  0.00000000E+00  0.00000000E+00  0.00000000E+00
  0.00000000E+00  0.00000000E+00  0.00000000E+00
  0.00000000E+00  0.00000000E+00  0.00000000E+00
  0.00000000E+00  0.00000000E+00  0.00000000E+00
  0.00000000E+00  0.00000000E+00  0.00000000E+00
  0.00000000E+00  0.00000000E+00  0.00000000E+00
  0.00000000E+00  0.00000000E+00  0.00000000E+00
  0.00000000E+00  0.00000000E+00  0.00000000E+00
  0.00000000E+00  0.00000000E+00  0.00000000E+00
  0.00000000E+00  0.00000000E+00  0.00000000E+00
  0.00000000E+00  0.00000000E+00  0.00000000E+00
  0.00000000E+00  0.00000000E+00  0.00000000E+00
  0.00000000E+00  0.00000000E+00  0.00000000E+00
  0.00000000E+00  0.00000000E+00  0.00000000E+00
  0.00000000E+00  0.00000000E+00  0.00000000E+00
  0.00000000E+00  0.00000000E+00  0.00000000E+00
  0.00000000E+00  0.00000000E+00  0.00000000E+00
  0.00000000E+00  0.00000000E+00  0.00000000E+00
  0.00000000E+00  0.00000000E+00  0.00000000E+00
  0.00000000E+00  0.00000000E+00  0.00000000E+00
  0.00000000E+00  0.00000000E+00  0.00000000E+00
  0.00000000E+00  0.00000000E+00  0.00000000E+00
  0.00000000E+00  0.00000000E+00  0.00000000E+00
  0.00000000E+00  0.00000000E+00  0.00000000E+00
  0.00000000E+00  0.00000000E+00  0.00000000E+00
  0.00000000E+00  0.00000000E+00  0.00000000E+00
  0.00000000E+00  0.00000000E+00  0.00000000E+00
  0.00000000E+00  0.00000000E+00  0.00000000E+00
  0.00000000E+00  0.00000000E+00  0.00000000E+00
