 C  N Cu  H  O                          
   1.00000000000000     
     8.4140850000000000    0.0000000000000000    0.0000000000000000
     0.0000000000000000    8.4141290000000009    0.0000000000000000
     0.0000000000000000    0.0000000000000000   30.0000000000000000
   C    N    Cu   H    O 
    20     4     1    46    24
Direct
  0.4225288062944744  0.9727110390337462  0.1269618130692587
  0.2757079686758144  0.0554115728514295  0.1264925907675408
  0.5699883658282920  0.0543503133821885  0.1263031257732810
  0.7171005123933494  0.8051796972674287  0.1278922023845611
  0.7185727405256019  0.9689621004791511  0.1266473431845269
  0.8406638078291920  0.0911432255894842  0.1258216349010071
  0.7557490694321572  0.2397230460730857  0.1253754242397000
  0.1256062687748630  0.9708725324312159  0.1268215788904242
  0.0047886384771973  0.0928826638872484  0.1260839222939567
  0.0909709926582446  0.2418900773557640  0.1252552662340730
  0.0081904821259260  0.3885903214787529  0.1246264238449269
  0.0877728981874840  0.5376146023095065  0.1238847902116921
  0.2725468182762934  0.7222305668612985  0.1247366273609180
  0.1245078127422872  0.8078009609481885  0.1267319645244093
  0.0020431824857270  0.6852580566275607  0.1266749348953065
  0.5678646873552142  0.7189144397594274  0.1284352338501878
  0.7544019776032342  0.5341505782073677  0.1277208088858795
  0.8388905180558826  0.6843557061212443  0.1276584039523212
  0.4212572046067600  0.8017521733169536  0.1268924279576447
  0.8372073536785761  0.3872718292119323  0.1259567936567325
  0.5938686684578967  0.2158167538823716  0.1237862077334334
  0.2533002685419915  0.2162887750010998  0.1239504931548603
  0.2482762147884397  0.5621869775899173  0.1189283745234580
  0.5932773924292565  0.5566781933219833  0.1273978400873731
  0.4309478596457243  0.3790218239231061  0.1398892123379826
  0.8872484992321839  0.8993777753598470  0.3580524389617681
  0.7486632991054948  0.8918975556695428  0.3237454829051756
  0.7698386815432470  0.5811193112902909  0.2651102778390347
  0.6981939501699850  0.7521344806526452  0.2554587709496444
  0.3910380482602712  0.3774616314609398  0.4596008806498031
  0.3344553672642787  0.4492938164983981  0.5044140635973529
  0.5400196827555607  0.6315878454487448  0.2959432898913873
  0.4746314940941882  0.6898762942000135  0.3436073421964737
  0.4384296901766411  0.2171885774733439  0.2942689632095192
  0.3555299392881779  0.0938165346016490  0.2634713702565230
  0.2564376934682221  0.5896150407390837  0.2297805998749948
  0.2863629327145155  0.6423234134635272  0.2794739075243593
  0.0393823383456482  0.4126045436157693  0.3887039716284517
  0.0129835513645540  0.3864886709495010  0.3369979555970637
  0.7890180974554927  0.0325228165836984  0.2557250263751132
  0.6069574117481771  0.0340272504156614  0.2674896546893008
  0.4149268090645264  0.4352217384575807  0.3354958766452940
  0.2814413857705634  0.3245913943993119  0.3541712536889495
  0.5870282228854857  0.6191936891428280  0.4136570553701944
  0.6570044450365540  0.7761318094720162  0.3896374251013756
  0.5487708791874949  0.5423863432117400  0.5417144696326182
  0.4039075324457060  0.6026157470197467  0.5702111224692042
  0.0400587369249372  0.5232150796380907  0.2718810408895029
  0.9506749978565706  0.3606555103870405  0.2637729711830762
  0.1711019296745090  0.1786789734040788  0.4831970408121732
  0.1524981370042797  0.0121708119144720  0.4607284148324176
  0.8107046968833452  0.5323867717406763  0.5356222385725889
  0.7479711267895049  0.3635619254581413  0.5215134710307926
  0.8074312207223096  0.7864655835721275  0.5038790738058427
  0.9846080655053236  0.8137421679057282  0.5178716043661333
  0.0705211908703743  0.1177618385576706  0.3623996103405354
  0.1496872126354524  0.9531727882016779  0.3773712893166577
  0.9990133770646153  0.6121358580395256  0.4608517989559513
  0.1478295161772377  0.5002154602776874  0.4543155977683388
  0.7137222189035827  0.0998897944747327  0.4855422227215225
  0.8856716612125934  0.1606954993871498  0.4754067921999062
  0.5239376653354463  0.3477893947067418  0.3965473293191338
  0.6499283646448618  0.3230212917069359  0.4361398712817957
  0.5446543049703989  0.8141724275011030  0.5119368838755121
  0.5967872415327682  0.8268266463933742  0.4621880535802668
  0.0404146563755546  0.0933218001987465  0.2441852984952338
  0.9540027565334556  0.1702443290177248  0.2027034205098212
  0.1827295971878970  0.7434128714851058  0.4251588762363292
  0.3533293564448982  0.8149034263169534  0.4166225315101980
  0.1467765509753436  0.9768122945395397  0.2994242988727718
  0.1812553755119989  0.8599719946138102  0.2586641846387580
  0.7848616733693884  0.8459588379179355  0.3523775545541594
  0.6737119087603017  0.6370777904860228  0.2544739676552474
  0.2971229699045852  0.3811756711363565  0.4796968415517796
  0.4465194746465849  0.6281040793996497  0.3171206885483692
  0.4521179928509754  0.1600844656256124  0.2656592869350209
  0.2061463090898084  0.6472722413064801  0.2551323139887484
  0.0626783427893276  0.3393872546220442  0.3639722140044906
  0.7036604952781986  0.9637315996987321  0.2672154271883522
  0.3963838355459222  0.3255536443293262  0.3469965582835338
  0.5678721271193252  0.7337787526226132  0.4087598409319612
  0.4441575565051470  0.6002793261260864  0.5398235898956535
  0.9481985291079984  0.4583960019491607  0.2820283744392788
  0.0981886815932065  0.0877319684706861  0.4805465195379258
  0.7298302534288958  0.4521362484526220  0.5425061644553626
  0.9097456856480203  0.7301578296062510  0.5097669509479155
  0.0820960801001168  1.0045188516975354  0.3542573434168194
  0.0698020944169417  0.5673466590763122  0.4378188374952138
  0.7737652023215190  0.1962167746324748  0.4780395447682213
  0.5670319518181035  0.3945257633312813  0.4244186719060623
  0.6193550298148760  0.8704392490772324  0.4923824270708088
  0.9502034837822568  0.1652704261729805  0.2350285752854559
  0.2412149524500902  0.8450563333355234  0.4204473238791044
  0.1744728633958916  0.9739286546631664  0.2669831053114926
  0.3302039833189093  0.4518973529822817  0.1907507704836628
 
  0.00000000E+00  0.00000000E+00  0.00000000E+00
  0.00000000E+00  0.00000000E+00  0.00000000E+00
  0.00000000E+00  0.00000000E+00  0.00000000E+00
  0.00000000E+00  0.00000000E+00  0.00000000E+00
  0.00000000E+00  0.00000000E+00  0.00000000E+00
  0.00000000E+00  0.00000000E+00  0.00000000E+00
  0.00000000E+00  0.00000000E+00  0.00000000E+00
  0.00000000E+00  0.00000000E+00  0.00000000E+00
  0.00000000E+00  0.00000000E+00  0.00000000E+00
  0.00000000E+00  0.00000000E+00  0.00000000E+00
  0.00000000E+00  0.00000000E+00  0.00000000E+00
  0.00000000E+00  0.00000000E+00  0.00000000E+00
  0.00000000E+00  0.00000000E+00  0.00000000E+00
  0.00000000E+00  0.00000000E+00  0.00000000E+00
  0.00000000E+00  0.00000000E+00  0.00000000E+00
  0.00000000E+00  0.00000000E+00  0.00000000E+00
  0.00000000E+00  0.00000000E+00  0.00000000E+00
  0.00000000E+00  0.00000000E+00  0.00000000E+00
  0.00000000E+00  0.00000000E+00  0.00000000E+00
  0.00000000E+00  0.00000000E+00  0.00000000E+00
  0.00000000E+00  0.00000000E+00  0.00000000E+00
  0.00000000E+00  0.00000000E+00  0.00000000E+00
  0.00000000E+00  0.00000000E+00  0.00000000E+00
  0.00000000E+00  0.00000000E+00  0.00000000E+00
  0.00000000E+00  0.00000000E+00  0.00000000E+00
  0.00000000E+00  0.00000000E+00  0.00000000E+00
  0.00000000E+00  0.00000000E+00  0.00000000E+00
  0.00000000E+00  0.00000000E+00  0.00000000E+00
  0.00000000E+00  0.00000000E+00  0.00000000E+00
  0.00000000E+00  0.00000000E+00  0.00000000E+00
  0.00000000E+00  0.00000000E+00  0.00000000E+00
  0.00000000E+00  0.00000000E+00  0.00000000E+00
  0.00000000E+00  0.00000000E+00  0.00000000E+00
  0.00000000E+00  0.00000000E+00  0.00000000E+00
  0.00000000E+00  0.00000000E+00  0.00000000E+00
  0.00000000E+00  0.00000000E+00  0.00000000E+00
  0.00000000E+00  0.00000000E+00  0.00000000E+00
  0.00000000E+00  0.00000000E+00  0.00000000E+00
  0.00000000E+00  0.00000000E+00  0.00000000E+00
  0.00000000E+00  0.00000000E+00  0.00000000E+00
  0.00000000E+00  0.00000000E+00  0.00000000E+00
  0.00000000E+00  0.00000000E+00  0.00000000E+00
  0.00000000E+00  0.00000000E+00  0.00000000E+00
  0.00000000E+00  0.00000000E+00  0.00000000E+00
  0.00000000E+00  0.00000000E+00  0.00000000E+00
  0.00000000E+00  0.00000000E+00  0.00000000E+00
  0.00000000E+00  0.00000000E+00  0.00000000E+00
  0.00000000E+00  0.00000000E+00  0.00000000E+00
  0.00000000E+00  0.00000000E+00  0.00000000E+00
  0.00000000E+00  0.00000000E+00  0.00000000E+00
  0.00000000E+00  0.00000000E+00  0.00000000E+00
  0.00000000E+00  0.00000000E+00  0.00000000E+00
  0.00000000E+00  0.00000000E+00  0.00000000E+00
  0.00000000E+00  0.00000000E+00  0.00000000E+00
  0.00000000E+00  0.00000000E+00  0.00000000E+00
  0.00000000E+00  0.00000000E+00  0.00000000E+00
  0.00000000E+00  0.00000000E+00  0.00000000E+00
  0.00000000E+00  0.00000000E+00  0.00000000E+00
  0.00000000E+00  0.00000000E+00  0.00000000E+00
  0.00000000E+00  0.00000000E+00  0.00000000E+00
  0.00000000E+00  0.00000000E+00  0.00000000E+00
  0.00000000E+00  0.00000000E+00  0.00000000E+00
  0.00000000E+00  0.00000000E+00  0.00000000E+00
  0.00000000E+00  0.00000000E+00  0.00000000E+00
  0.00000000E+00  0.00000000E+00  0.00000000E+00
  0.00000000E+00  0.00000000E+00  0.00000000E+00
  0.00000000E+00  0.00000000E+00  0.00000000E+00
  0.00000000E+00  0.00000000E+00  0.00000000E+00
  0.00000000E+00  0.00000000E+00  0.00000000E+00
  0.00000000E+00  0.00000000E+00  0.00000000E+00
  0.00000000E+00  0.00000000E+00  0.00000000E+00
  0.00000000E+00  0.00000000E+00  0.00000000E+00
  0.00000000E+00  0.00000000E+00  0.00000000E+00
  0.00000000E+00  0.00000000E+00  0.00000000E+00
  0.00000000E+00  0.00000000E+00  0.00000000E+00
  0.00000000E+00  0.00000000E+00  0.00000000E+00
  0.00000000E+00  0.00000000E+00  0.00000000E+00
  0.00000000E+00  0.00000000E+00  0.00000000E+00
  0.00000000E+00  0.00000000E+00  0.00000000E+00
  0.00000000E+00  0.00000000E+00  0.00000000E+00
  0.00000000E+00  0.00000000E+00  0.00000000E+00
  0.00000000E+00  0.00000000E+00  0.00000000E+00
  0.00000000E+00  0.00000000E+00  0.00000000E+00
  0.00000000E+00  0.00000000E+00  0.00000000E+00
  0.00000000E+00  0.00000000E+00  0.00000000E+00
  0.00000000E+00  0.00000000E+00  0.00000000E+00
  0.00000000E+00  0.00000000E+00  0.00000000E+00
  0.00000000E+00  0.00000000E+00  0.00000000E+00
  0.00000000E+00  0.00000000E+00  0.00000000E+00
  0.00000000E+00  0.00000000E+00  0.00000000E+00
  0.00000000E+00  0.00000000E+00  0.00000000E+00
  0.00000000E+00  0.00000000E+00  0.00000000E+00
  0.00000000E+00  0.00000000E+00  0.00000000E+00
  0.00000000E+00  0.00000000E+00  0.00000000E+00
  0.00000000E+00  0.00000000E+00  0.00000000E+00
