 C  N Cu  H  O                          
   1.00000000000000     
     8.4140850000000000    0.0000000000000000    0.0000000000000000
     0.0000000000000000    8.4141290000000009    0.0000000000000000
     0.0000000000000000    0.0000000000000000   30.0000000000000000
   C    N    Cu   H    O 
    20     4     1    48    24
Direct
  0.4241451823879792  0.9194158528210922  0.1177735666063892
  0.2775022675124382  0.0020538751784393  0.1177889950077075
  0.5715946258236351  0.0015118476861281  0.1182477301486642
  0.7205583157227117  0.7511105953346333  0.1196225789336506
  0.7203704011722821  0.9164509218622237  0.1199909804439824
  0.8414048018592133  0.0377435543287939  0.1205338897387125
  0.7565723186516894  0.1865084315043504  0.1186771675979373
  0.1277527865102853  0.9168801928385966  0.1196047987265597
  0.0072269596761055  0.0376483179450134  0.1202225712782968
  0.0922868316408607  0.1871649503666762  0.1181988021435127
  0.0097290110803206  0.3338861172901351  0.1176653221546354
  0.0916807391618845  0.4815303361561980  0.1171942720394733
  0.2767101459598930  0.6664539748090860  0.1170547043150419
  0.1278687862930119  0.7514606947534658  0.1192739233299117
  0.0067130051152300  0.6301185654165912  0.1195025084917010
  0.5708983206305732  0.6658827408060863  0.1177121006212390
  0.7560639872581146  0.4807841098321038  0.1181478846738964
  0.8411220621977306  0.6303499837181493  0.1198463415981278
  0.4242246914215928  0.7484484289853366  0.1174379528411424
  0.8387026064691815  0.3340072561457302  0.1180737003042428
  0.5945277813524282  0.1634104515082011  0.1151506512282840
  0.2542526716757832  0.1638531200148675  0.1145605295617592
  0.2535010266569437  0.5047787493189553  0.1132498766196268
  0.5941096992203891  0.5039759505903084  0.1145178386386865
  0.4238219360888174  0.3342404643358204  0.1208761442591905
  0.7817748638374327  0.9418320630840187  0.3791728206854381
  0.6320924428847875  0.8975987094489118  0.3524012649788830
  0.7026544788298209  0.5297158757257719  0.2512083058937616
  0.6083805148640239  0.6943531185213179  0.2522999293755668
  0.4370948371675200  0.3489068011650637  0.4573967606824925
  0.3520987926883402  0.5089102186090820  0.4742573679365913
  0.5453108924245329  0.5721290157858863  0.3613626524919777
  0.5185335218162057  0.5778343226799311  0.3092072388824525
  0.3535920557697630  0.1598507272827489  0.2929580807727996
  0.2669388367831461  1.0248832398670991  0.2661136793844088
  0.1053755872184346  0.6204968622283309  0.1978184354471883
  0.2209684428345718  0.5045078780161003  0.2219936666019887
 -0.0210721351675798  0.3658793079888352  0.3726828928139774
  0.9490215520904733  0.3505238678020965  0.3195839517353507
  0.7026888810789100  0.9545642667062980  0.2680537198627663
  0.5216312091656033  0.9570718425874304  0.2765101565556630
  0.3789293384071968  0.3848677969649970  0.3384945169783355
  0.2113548809485443  0.2963974488242509  0.3412310087702964
  0.5913491930560157  0.5632962446456525  0.4370801421602510
  0.6688281799711315  0.7114431470051176  0.4110059573292191
  0.9819557722335543  0.7301874475352652  0.5725644384043882
  0.0115944600711412  0.5482371195240047  0.5740671000975074
  0.3751928495878027  0.2701018246368294  0.2246995849963764
  0.4645353548648564  0.4356514791477303  0.2198779763131358
  0.9697581146000150  0.4597173250225174  0.2482726607990678
  0.8731488094757556  0.2976729058996044  0.2491606219910402
  0.1297136754494907  0.2466442799899122  0.5057954003115681
  0.0746409428294794  0.1059310360169032  0.4757545222233164
  0.8261330552057843  0.9765112684905530  0.5876075679815613
  0.7261923434683808  0.8257903533965630  0.5763923440713172
  0.7661429434341355  0.2691378300434758  0.5698839380173031
  0.9019262597012435  0.1851547611052035  0.5439315798154229
 -0.0105524506170841  0.0934318947246201  0.3564259140149110
  0.0548043566728751  0.9603844735865217  0.3886961854674373
  0.1328277642281301  0.6449822277612440  0.5082003127771000
  0.0986538351587651  0.5852710392760518  0.4591046503860294
  0.8552262586561304  0.4993643546482410  0.4270835746545806
  0.9630563880900197  0.3625500341472504  0.4492228849863801
  0.3923196432259349  0.1879055475809119  0.3902035441853087
  0.5206557771131747  0.0741666204710765  0.4103758587025475
  0.5723691408342265  0.4519773668705647  0.5274512573675932
  0.5732318381572592  0.4990786273818141  0.5776084683841460
  0.9495529588577154  0.0126676190727201  0.2447714479895032
  0.8550537442872868  0.0604678387769184  0.2015306075576002
  0.1796501295014415  0.8487319680104720  0.4546756844774013
  0.2686667404074163  1.0034484418525758  0.4349533009769265
  0.0605562853989622  0.8987763743717953  0.3074377899769022
  0.1098149137831945  0.7820136448301616  0.2674132184562434
  0.6677341707907347  0.9150205651187863  0.3832821302539444
  0.5973849923333178  0.5791228238087536  0.2464602481999026
  0.4542098732104578  0.4492889128295107  0.4735136267272937
  0.4633735728949784  0.5657895705247424  0.3378993343580081
  0.3615937631199524  0.0943549565933153  0.2651424765344831
  0.1317743521662654  0.5803883665084365  0.2274364233841225
  0.0030834257985755  0.3023152109769628  0.3455776516751815
  0.6180750635684459  0.8917020344828949  0.2822113844425826
  0.3278639994626604  0.2768154588915451  0.3399074690519874
  0.6703601457078389  0.5943943087798118  0.4141993649239226
  0.0592331484512260  0.6466993102343731  0.5634450401483192
  0.3788781674976845  0.3692799026580819  0.2069752094171484
  0.8789550036919273  0.4046409859695619  0.2626776789099878
  0.0357249493083552  0.2036142279219276  0.4911810017446954
  0.8231673995635539  0.8593064974374505  0.5913180796370182
  0.8489033848174193  0.1874637237923713  0.5730945106800079
  0.9881038247558340  0.9768226120605772  0.3617610249233391
  0.1789127915402968  0.6413519841792199  0.4774769930934448
  0.9632200537324729  0.4510628312853628  0.4276158615235534
  0.4284953901848356  0.1399581895709051  0.4189129545667759
  0.6422800222474102  0.4621400212451757  0.5537510707228107
  0.8607933940398954  0.0798418378666818  0.2335899243375639
  0.1630348445916423  0.9559394406926194  0.4416793898543319
  0.0898639336391450  0.8933740339134888  0.2753564448651575
 
  0.00000000E+00  0.00000000E+00  0.00000000E+00
  0.00000000E+00  0.00000000E+00  0.00000000E+00
  0.00000000E+00  0.00000000E+00  0.00000000E+00
  0.00000000E+00  0.00000000E+00  0.00000000E+00
  0.00000000E+00  0.00000000E+00  0.00000000E+00
  0.00000000E+00  0.00000000E+00  0.00000000E+00
  0.00000000E+00  0.00000000E+00  0.00000000E+00
  0.00000000E+00  0.00000000E+00  0.00000000E+00
  0.00000000E+00  0.00000000E+00  0.00000000E+00
  0.00000000E+00  0.00000000E+00  0.00000000E+00
  0.00000000E+00  0.00000000E+00  0.00000000E+00
  0.00000000E+00  0.00000000E+00  0.00000000E+00
  0.00000000E+00  0.00000000E+00  0.00000000E+00
  0.00000000E+00  0.00000000E+00  0.00000000E+00
  0.00000000E+00  0.00000000E+00  0.00000000E+00
  0.00000000E+00  0.00000000E+00  0.00000000E+00
  0.00000000E+00  0.00000000E+00  0.00000000E+00
  0.00000000E+00  0.00000000E+00  0.00000000E+00
  0.00000000E+00  0.00000000E+00  0.00000000E+00
  0.00000000E+00  0.00000000E+00  0.00000000E+00
  0.00000000E+00  0.00000000E+00  0.00000000E+00
  0.00000000E+00  0.00000000E+00  0.00000000E+00
  0.00000000E+00  0.00000000E+00  0.00000000E+00
  0.00000000E+00  0.00000000E+00  0.00000000E+00
  0.00000000E+00  0.00000000E+00  0.00000000E+00
  0.00000000E+00  0.00000000E+00  0.00000000E+00
  0.00000000E+00  0.00000000E+00  0.00000000E+00
  0.00000000E+00  0.00000000E+00  0.00000000E+00
  0.00000000E+00  0.00000000E+00  0.00000000E+00
  0.00000000E+00  0.00000000E+00  0.00000000E+00
  0.00000000E+00  0.00000000E+00  0.00000000E+00
  0.00000000E+00  0.00000000E+00  0.00000000E+00
  0.00000000E+00  0.00000000E+00  0.00000000E+00
  0.00000000E+00  0.00000000E+00  0.00000000E+00
  0.00000000E+00  0.00000000E+00  0.00000000E+00
  0.00000000E+00  0.00000000E+00  0.00000000E+00
  0.00000000E+00  0.00000000E+00  0.00000000E+00
  0.00000000E+00  0.00000000E+00  0.00000000E+00
  0.00000000E+00  0.00000000E+00  0.00000000E+00
  0.00000000E+00  0.00000000E+00  0.00000000E+00
  0.00000000E+00  0.00000000E+00  0.00000000E+00
  0.00000000E+00  0.00000000E+00  0.00000000E+00
  0.00000000E+00  0.00000000E+00  0.00000000E+00
  0.00000000E+00  0.00000000E+00  0.00000000E+00
  0.00000000E+00  0.00000000E+00  0.00000000E+00
  0.00000000E+00  0.00000000E+00  0.00000000E+00
  0.00000000E+00  0.00000000E+00  0.00000000E+00
  0.00000000E+00  0.00000000E+00  0.00000000E+00
  0.00000000E+00  0.00000000E+00  0.00000000E+00
  0.00000000E+00  0.00000000E+00  0.00000000E+00
  0.00000000E+00  0.00000000E+00  0.00000000E+00
  0.00000000E+00  0.00000000E+00  0.00000000E+00
  0.00000000E+00  0.00000000E+00  0.00000000E+00
  0.00000000E+00  0.00000000E+00  0.00000000E+00
  0.00000000E+00  0.00000000E+00  0.00000000E+00
  0.00000000E+00  0.00000000E+00  0.00000000E+00
  0.00000000E+00  0.00000000E+00  0.00000000E+00
  0.00000000E+00  0.00000000E+00  0.00000000E+00
  0.00000000E+00  0.00000000E+00  0.00000000E+00
  0.00000000E+00  0.00000000E+00  0.00000000E+00
  0.00000000E+00  0.00000000E+00  0.00000000E+00
  0.00000000E+00  0.00000000E+00  0.00000000E+00
  0.00000000E+00  0.00000000E+00  0.00000000E+00
  0.00000000E+00  0.00000000E+00  0.00000000E+00
  0.00000000E+00  0.00000000E+00  0.00000000E+00
  0.00000000E+00  0.00000000E+00  0.00000000E+00
  0.00000000E+00  0.00000000E+00  0.00000000E+00
  0.00000000E+00  0.00000000E+00  0.00000000E+00
  0.00000000E+00  0.00000000E+00  0.00000000E+00
  0.00000000E+00  0.00000000E+00  0.00000000E+00
  0.00000000E+00  0.00000000E+00  0.00000000E+00
  0.00000000E+00  0.00000000E+00  0.00000000E+00
  0.00000000E+00  0.00000000E+00  0.00000000E+00
  0.00000000E+00  0.00000000E+00  0.00000000E+00
  0.00000000E+00  0.00000000E+00  0.00000000E+00
  0.00000000E+00  0.00000000E+00  0.00000000E+00
  0.00000000E+00  0.00000000E+00  0.00000000E+00
  0.00000000E+00  0.00000000E+00  0.00000000E+00
  0.00000000E+00  0.00000000E+00  0.00000000E+00
  0.00000000E+00  0.00000000E+00  0.00000000E+00
  0.00000000E+00  0.00000000E+00  0.00000000E+00
  0.00000000E+00  0.00000000E+00  0.00000000E+00
  0.00000000E+00  0.00000000E+00  0.00000000E+00
  0.00000000E+00  0.00000000E+00  0.00000000E+00
  0.00000000E+00  0.00000000E+00  0.00000000E+00
  0.00000000E+00  0.00000000E+00  0.00000000E+00
  0.00000000E+00  0.00000000E+00  0.00000000E+00
  0.00000000E+00  0.00000000E+00  0.00000000E+00
  0.00000000E+00  0.00000000E+00  0.00000000E+00
  0.00000000E+00  0.00000000E+00  0.00000000E+00
  0.00000000E+00  0.00000000E+00  0.00000000E+00
  0.00000000E+00  0.00000000E+00  0.00000000E+00
  0.00000000E+00  0.00000000E+00  0.00000000E+00
  0.00000000E+00  0.00000000E+00  0.00000000E+00
  0.00000000E+00  0.00000000E+00  0.00000000E+00
  0.00000000E+00  0.00000000E+00  0.00000000E+00
  0.00000000E+00  0.00000000E+00  0.00000000E+00
