 C Fe  H  N  O                          
   1.00000000000000     
     8.3960796999999996    0.0000000000000000    0.0000000000000000
     0.0000000000000000    8.3961237999999998    0.0000000000000000
     0.0000000000000000    0.0000000000000000   30.0000000000000000
   C    Fe   H    N    O 
    20     1    48     4    24
Direct
  0.6653263580895309  0.5368695427714250  0.0829113781032783
  0.5193298283891695  0.6197207611001287  0.0823873529113039
  0.8112166417944523  0.6197313118682702  0.0822981715007230
  0.9611199398830711  0.3684484363615143  0.0830848050142246
  0.9611741336048951  0.5346652495506932  0.0828532343809709
  0.0814749630923707  0.6571044890973424  0.0827899565072746
  0.9982466474647046  0.8040880219765885  0.0819772127674680
  0.3695328864288344  0.5346420924450797  0.0828068022906153
  0.2492030171727695  0.6570035748009124  0.0825178820150656
  0.3323122821726240  0.8039238608600502  0.0816827860183976
  0.2509344312640252  0.9515505342246561  0.0818558057923039
  0.3325950423130887  0.0987930453599474  0.0828218001807682
  0.5195369569335219  0.2831876591975797  0.0834976973013874
  0.3697154642436946  0.3684058261659817  0.0832423113960693
  0.2493721991173336  0.2459352242343234  0.0831152868996246
  0.8113004584253148  0.2832695703264554  0.0830952674439932
  0.9981063575937846  0.0988848909158415  0.0822906616039786
  0.0814732865873695  0.2460449055076173  0.0828521917217381
  0.6653536414027381  0.3661673269641504  0.0834895331448823
  0.0796573971382074  0.9515790580723033  0.0818461327287426
  0.6655720641312833  0.9507915501037227  0.0875211644715784
  0.2126561722740588  0.0747827937762212  0.1931196882832780
  0.1556409752903526  0.1944628482685801  0.1567727751641994
  0.9003291680068349  0.8757643349250929  0.2953202000884385
  0.9358119694882576  0.0591049543993182  0.2937799452832717
  0.7113588603450803  0.1478906138789199  0.6038878978770370
  0.7301343497890209  0.2212943929604086  0.5560135358929847
  0.2371122119938339  0.5316366577414667  0.2778858350371127
  0.1762329957830071  0.6452923954346715  0.3144706561885442
  0.1264171158919354  0.3333838987368165  0.2215473073245155
  0.0406634600720104  0.5026709130149137  0.2259154924461787
  0.6059915230087196  0.8238344568240678  0.2693031831199695
  0.4554400129244051  0.7147942299853560  0.2769164786916673
  0.1243179641909656  0.7747789312785082  0.4277127698647335
  0.1233593847623604  0.9400777951906131  0.4029650744120729
  0.7805077308275622  0.1085726351246806  0.2353914538848416
  0.8295725278606455  0.2297373766549364  0.1992617404542386
  0.3840738659370619  0.4872880118167619  0.3430991945583601
  0.3842305086289219  0.3245690093205781  0.3686085108150443
  0.9506063472048401  0.5885724340964168  0.4628786584215783
  0.7690290853292414  0.6322903191049180  0.4669896993757984
  0.6676960838584858  0.8736545127435782  0.4424224721851925
  0.5741945429389869  0.8578346374357048  0.4863336631250748
  0.7613670633657305  0.8545319470687602  0.1671198475818169
  0.6888297903357029  0.0260018464306440  0.1751323715987488
  0.9209665087275118  0.3088573151478415  0.3367134318561349
  0.0363947087553853  0.3187604459797967  0.2953743875499620
  0.5547154842813261  0.4087428034345673  0.6125095206688105
  0.5878352427156959  0.5481400103498766  0.6448255235699896
  0.3269440205910346  0.6125108755836733  0.4557382951357052
  0.2178195745219716  0.4779728289957076  0.4732324739522466
  0.5596145630562818  0.1288885583903979  0.4213982416969229
  0.7191433350867710  0.1955599670195277  0.4038736840324732
  0.1527536386693980  0.1838390482331747  0.3642555193824097
  0.1987069945966229  0.1919398898863089  0.4154439236912540
  0.7845756535951609  0.1836500201267932  0.4813565271128731
  0.8369747118870967  0.3542021930033881  0.4943796541281841
  0.6478537517132013  0.4202372267360480  0.3683987396538113
  0.7866380490278962  0.4596312076763231  0.4027750059826138
  0.9807340236959760  0.7544984028861591  0.3629090810381442
  0.8833988466241998  0.6169205605455464  0.3397821107960433
  0.3752089793296015  0.9417846408428119  0.5423902435921999
  0.5026069840179866  0.0760288950762677  0.5474839841245529
 -0.0245017361325210  0.8353773291591458  0.2164677013346528
  0.0416635510041683  0.7658380545787890  0.1727586493939813
  0.0791243672214351  0.2249827890904591  0.4909908674097611
  0.2607323138617343  0.1805220740301461  0.4959668581040204
  0.3948480500714761  0.8459352035687880  0.2129212420996821
  0.3751227382599687  0.8776185520207904  0.1627077841740854
  0.8322581416382894  0.7819554523309666  0.0814459434018900
  0.4983808716770354  0.7819483530960541  0.0814843414372092
  0.4987059708612827  0.1206649207069855  0.0833762531779677
  0.8322673159065206  0.1209137934742902  0.0825105624577768
  0.1426342140458865  0.1687013039920016  0.1884226659454991
  0.8882135691730815 -0.0287534026417470  0.2765311735501977
  0.6523890298534025  0.2035761535533072  0.5807139212533948
  0.2756530198179001  0.5989487879987866  0.3028835337785667
  0.0976331959307881  0.4209449044779749  0.2429167491642885
  0.5313791883479347  0.7529365294221334  0.2543579940122029
  0.0549003113909328  0.8501240798801029  0.4121882543645635
  0.7363597233083979  0.1766770772536996  0.2117513195897330
  0.4411393115001320  0.4262719725310756  0.3667252745544936
  0.8439620265061659  0.5419994714003831  0.4626877807880021
  0.6236545721800119  0.7936389300379626  0.4627900286785516
  0.6728002200100009  0.9249038143995582  0.1580169207381431
  0.0092821083529967  0.2531456842234606  0.3218188181886665
  0.5019978253533319  0.4945396220652469  0.6290593476742112
  0.2223676885972964  0.5943493677236178  0.4689947392279812
  0.6744116879134719  0.1189966816520824  0.4255021636089952
  0.2270742364879150  0.1405892425658810  0.3870513358803805
  0.8429553224444829  0.2420849452358969  0.5047922227303718
  0.7645745360888084  0.4058268834386242  0.3742841690907784
  0.9558070181305253  0.7054286198321826  0.3335557891742900
  0.4361703702032612  0.0193832445655539  0.5253114067535885
  0.9534802350995195  0.7541441523446578  0.1938353154649843
  0.1863098229573842  0.2483585359509053  0.4793690510360623
  0.3158875436930599  0.8822340380095264  0.1906463879275809
 
  0.00000000E+00  0.00000000E+00  0.00000000E+00
  0.00000000E+00  0.00000000E+00  0.00000000E+00
  0.00000000E+00  0.00000000E+00  0.00000000E+00
  0.00000000E+00  0.00000000E+00  0.00000000E+00
  0.00000000E+00  0.00000000E+00  0.00000000E+00
  0.00000000E+00  0.00000000E+00  0.00000000E+00
  0.00000000E+00  0.00000000E+00  0.00000000E+00
  0.00000000E+00  0.00000000E+00  0.00000000E+00
  0.00000000E+00  0.00000000E+00  0.00000000E+00
  0.00000000E+00  0.00000000E+00  0.00000000E+00
  0.00000000E+00  0.00000000E+00  0.00000000E+00
  0.00000000E+00  0.00000000E+00  0.00000000E+00
  0.00000000E+00  0.00000000E+00  0.00000000E+00
  0.00000000E+00  0.00000000E+00  0.00000000E+00
  0.00000000E+00  0.00000000E+00  0.00000000E+00
  0.00000000E+00  0.00000000E+00  0.00000000E+00
  0.00000000E+00  0.00000000E+00  0.00000000E+00
  0.00000000E+00  0.00000000E+00  0.00000000E+00
  0.00000000E+00  0.00000000E+00  0.00000000E+00
  0.00000000E+00  0.00000000E+00  0.00000000E+00
  0.00000000E+00  0.00000000E+00  0.00000000E+00
  0.00000000E+00  0.00000000E+00  0.00000000E+00
  0.00000000E+00  0.00000000E+00  0.00000000E+00
  0.00000000E+00  0.00000000E+00  0.00000000E+00
  0.00000000E+00  0.00000000E+00  0.00000000E+00
  0.00000000E+00  0.00000000E+00  0.00000000E+00
  0.00000000E+00  0.00000000E+00  0.00000000E+00
  0.00000000E+00  0.00000000E+00  0.00000000E+00
  0.00000000E+00  0.00000000E+00  0.00000000E+00
  0.00000000E+00  0.00000000E+00  0.00000000E+00
  0.00000000E+00  0.00000000E+00  0.00000000E+00
  0.00000000E+00  0.00000000E+00  0.00000000E+00
  0.00000000E+00  0.00000000E+00  0.00000000E+00
  0.00000000E+00  0.00000000E+00  0.00000000E+00
  0.00000000E+00  0.00000000E+00  0.00000000E+00
  0.00000000E+00  0.00000000E+00  0.00000000E+00
  0.00000000E+00  0.00000000E+00  0.00000000E+00
  0.00000000E+00  0.00000000E+00  0.00000000E+00
  0.00000000E+00  0.00000000E+00  0.00000000E+00
  0.00000000E+00  0.00000000E+00  0.00000000E+00
  0.00000000E+00  0.00000000E+00  0.00000000E+00
  0.00000000E+00  0.00000000E+00  0.00000000E+00
  0.00000000E+00  0.00000000E+00  0.00000000E+00
  0.00000000E+00  0.00000000E+00  0.00000000E+00
  0.00000000E+00  0.00000000E+00  0.00000000E+00
  0.00000000E+00  0.00000000E+00  0.00000000E+00
  0.00000000E+00  0.00000000E+00  0.00000000E+00
  0.00000000E+00  0.00000000E+00  0.00000000E+00
  0.00000000E+00  0.00000000E+00  0.00000000E+00
  0.00000000E+00  0.00000000E+00  0.00000000E+00
  0.00000000E+00  0.00000000E+00  0.00000000E+00
  0.00000000E+00  0.00000000E+00  0.00000000E+00
  0.00000000E+00  0.00000000E+00  0.00000000E+00
  0.00000000E+00  0.00000000E+00  0.00000000E+00
  0.00000000E+00  0.00000000E+00  0.00000000E+00
  0.00000000E+00  0.00000000E+00  0.00000000E+00
  0.00000000E+00  0.00000000E+00  0.00000000E+00
  0.00000000E+00  0.00000000E+00  0.00000000E+00
  0.00000000E+00  0.00000000E+00  0.00000000E+00
  0.00000000E+00  0.00000000E+00  0.00000000E+00
  0.00000000E+00  0.00000000E+00  0.00000000E+00
  0.00000000E+00  0.00000000E+00  0.00000000E+00
  0.00000000E+00  0.00000000E+00  0.00000000E+00
  0.00000000E+00  0.00000000E+00  0.00000000E+00
  0.00000000E+00  0.00000000E+00  0.00000000E+00
  0.00000000E+00  0.00000000E+00  0.00000000E+00
  0.00000000E+00  0.00000000E+00  0.00000000E+00
  0.00000000E+00  0.00000000E+00  0.00000000E+00
  0.00000000E+00  0.00000000E+00  0.00000000E+00
  0.00000000E+00  0.00000000E+00  0.00000000E+00
  0.00000000E+00  0.00000000E+00  0.00000000E+00
  0.00000000E+00  0.00000000E+00  0.00000000E+00
  0.00000000E+00  0.00000000E+00  0.00000000E+00
  0.00000000E+00  0.00000000E+00  0.00000000E+00
  0.00000000E+00  0.00000000E+00  0.00000000E+00
  0.00000000E+00  0.00000000E+00  0.00000000E+00
  0.00000000E+00  0.00000000E+00  0.00000000E+00
  0.00000000E+00  0.00000000E+00  0.00000000E+00
  0.00000000E+00  0.00000000E+00  0.00000000E+00
  0.00000000E+00  0.00000000E+00  0.00000000E+00
  0.00000000E+00  0.00000000E+00  0.00000000E+00
  0.00000000E+00  0.00000000E+00  0.00000000E+00
  0.00000000E+00  0.00000000E+00  0.00000000E+00
  0.00000000E+00  0.00000000E+00  0.00000000E+00
  0.00000000E+00  0.00000000E+00  0.00000000E+00
  0.00000000E+00  0.00000000E+00  0.00000000E+00
  0.00000000E+00  0.00000000E+00  0.00000000E+00
  0.00000000E+00  0.00000000E+00  0.00000000E+00
  0.00000000E+00  0.00000000E+00  0.00000000E+00
  0.00000000E+00  0.00000000E+00  0.00000000E+00
  0.00000000E+00  0.00000000E+00  0.00000000E+00
  0.00000000E+00  0.00000000E+00  0.00000000E+00
  0.00000000E+00  0.00000000E+00  0.00000000E+00
  0.00000000E+00  0.00000000E+00  0.00000000E+00
  0.00000000E+00  0.00000000E+00  0.00000000E+00
  0.00000000E+00  0.00000000E+00  0.00000000E+00
  0.00000000E+00  0.00000000E+00  0.00000000E+00
