 C  N Cr  H  O                          
   1.00000000000000     
     8.4262443000000005    0.0000000000000000    0.0000000000000000
     0.0000000000000000    8.4262885000000001    0.0000000000000000
     0.0000000000000000    0.0000000000000000   30.0000000000000000
   C    N    Cr   H    O 
    20     4     1    47    25
Direct
  0.4994004138385152  0.0865524163540901  0.1054870794415597
  0.3530827872622216  0.1685352163005877  0.1049565444313345
  0.6457941401480769  0.1683891230248130  0.1041224823210348
  0.7960827594251809  0.9182967660421231  0.1040860027978160
  0.7966404601554113  0.0825310840284146  0.1039412925886839
  0.9164392157465082  0.2050434518514137  0.1042842266898380
  0.8340190066901697  0.3517155869749485  0.1042086063605819
  0.2022884372792981  0.0827722240717057  0.1049401355655756
  0.0830321024115436  0.2049923100336322  0.1049674830335492
  0.1657979360133036  0.3520497529990754  0.1050540795427698
  0.0853378463394553  0.5005349562316413  0.1055236679858989
  0.1657428366328159  0.6486721081339558  0.1063787924044554
  0.3529298908070342  0.8335789996448613  0.1071956241395097
  0.2023843248119548  0.9181762393122995  0.1052992025265180
  0.0827855504488134  0.7953551460698350  0.1048962396511670
  0.6455764017598442  0.8336891166452913  0.1059172135190045
  0.8335034447427172  0.6486154690200153  0.1051464595769284
  0.9163484267824635  0.7949749192198008  0.1042359926012432
  0.4992321396409810  0.9157872060405747  0.1068214409819908
  0.9139659989396416  0.5002287932050121  0.1049846280632111
  0.6688683596086364  0.3283092919998273  0.1035214784694520
  0.3304994386959118  0.3287767705678634  0.1043788590089280
  0.3312022362934945  0.6722257973425639  0.1085005978819118
  0.6675801061464678  0.6726259830646687  0.1070761366050636
  0.5033816182145030  0.5025001422798248  0.1163126074996077
  0.9875950791708666  0.3276262324953545  0.2315105007216947
  0.0203786220831395  0.2472383894202757  0.1846773281199135
  0.3757550972923410  0.1992682352204879  0.2685813277666211
  0.5539582446347026  0.2449269203491342  0.2761573000260413
  0.3372320322080827  0.9679585167048741  0.4896008203180196
  0.4359896311593861  0.1230833194428731  0.4986930496427088
  0.8431579917809925  0.0737110918523023  0.3256152154656496
  0.6762385292268051  0.1060478389483514  0.3452483420834543
  0.1256063775422066  0.6707561645050478  0.2362018635546311
  0.2816612835958439  0.6951268240612887  0.2098926131982107
  0.2195062133569832  0.9376034415287562  0.2489450802072382
  0.1358860744988208  0.1033579593187630  0.2453348403456526
  0.7258530156906536  0.7775089690423113  0.4693222076734694
  0.5974987549705048  0.8606675642273779  0.4998597121193262
  0.7704815992926795  0.8092130998207898  0.2198630718676073
  0.8746455114636236  0.7118672719613693  0.1870762664019485
  0.7590813413303353  0.3946646184134021  0.4564006598569600
  0.8227926036459715  0.4359222152455593  0.4083298983190267
  0.3810787101850223  0.3811629462914872  0.4087070762842315
  0.2698308742948801  0.4417589614740421  0.4462904227125587
  0.0123333043981896  0.5427270727168579  0.4535219793857636
  0.1251897586512070  0.6911116205432228  0.4615225416204467
  0.0795866057668344  0.0311664666935649  0.3663400356334037
  0.1083580268476135  0.9977929552131731  0.3147359056271053
  0.0736693744948793  0.8738847401190193  0.5112158920932047
  0.1018907867429557  0.9723739323078225  0.4658813161726871
  0.8358420968147476  0.8043319700897409  0.5367280595259242
  0.9590222118548910  0.7240647716968137  0.5687878086487542
  0.0854857307642735  0.7414067871628071  0.3465701483373402
  0.0896670996570842  0.6159125233059831  0.3846595397565333
  0.6830835710432168  0.1776309828038896  0.4166576228840642
  0.5451848210053800  0.0635601824066116  0.4304157303154115
  0.5171771440731553  0.4212303808170590  0.4753106387864156
  0.6186977263675616  0.5569706693500965  0.4980065618658980
  0.0019729475915247  0.2094033638287117  0.4282182576419425
  0.1873583375388200  0.1995561456159751  0.4294402616888955
  0.5258395451438042  0.6523929825955999  0.3515016034792543
  0.5351592120476678  0.8390153886176620  0.3558585996915255
  0.2933119144992505  0.5311860006143286  0.3477114308277912
  0.4133781313114807  0.4089013052556115  0.3258832455387918
  0.8123747874261358  0.0824202623310269  0.2212444313971374
  0.7177464376929099  0.0285682491919991  0.2624667737427092
  0.8886404926129573  0.8333905484613127  0.4094941674348859
  0.7357522358654205  0.7457736474461020  0.3943618669659685
  0.9904755745457250  0.5286375551445415  0.2930202424524352
  0.8995355578579922  0.5812605711911644  0.2483545710096527
  0.4441036019404732  0.4501466662551130  0.2323290590133237
 -0.0046115309359105  0.2239193013736651  0.2157784987374426
  0.4474408839714544  0.2907489963913136  0.2740100915079512
  0.4453288860091101  0.0151134040280903  0.4874031201533627
  0.7412941925025079  0.1258896983685432  0.3186629577635612
  0.1879468655342081  0.7524586907217343  0.2204217951423906
  0.2120021049950531  0.0427633456916169  0.2640661309412379
  0.6769005461538919  0.7745862832839829  0.4996697606122568
  0.7997750601991579  0.6984018495132132  0.2115319954481878
  0.8375410070675375  0.3607585359468904  0.4326848560597113
  0.3477422989588545  0.3561918240720597  0.4396321828485570
  0.1194898817716730  0.5829744229036047  0.4483124281292672
  0.0432848488877268  0.9657928080949496  0.3410914608748242
  0.1442344341698794  0.8851687981734284  0.4846246235199526
  0.9375290451680851  0.8226627379962826  0.5530454914565518
  0.1021425509791355  0.6269739730255410  0.3521268678772665
  0.6162666342961362  0.0909811390633480  0.4055981884293808
  0.6156397515041232  0.4413918379573211  0.4924118652863465
  0.0909474481954207  0.1341444504763570  0.4248706005811822
  0.5998990634694819  0.7439485444105149  0.3530255201797712
  0.3980365137098478  0.4789975122014659  0.3520043019304872
  0.7260037489786012  1.0104429496954337  0.2301113888639354
  0.8195319001497398  0.7460839874104624  0.4181553338810131
  0.9873614691338469  0.5134275046966186  0.2607024930784479
  0.5251135252628898  0.4414955984057830  0.1738833150301035
  0.4493662231353204  0.5338977915974790  0.2085602980146008
 
  0.00000000E+00  0.00000000E+00  0.00000000E+00
  0.00000000E+00  0.00000000E+00  0.00000000E+00
  0.00000000E+00  0.00000000E+00  0.00000000E+00
  0.00000000E+00  0.00000000E+00  0.00000000E+00
  0.00000000E+00  0.00000000E+00  0.00000000E+00
  0.00000000E+00  0.00000000E+00  0.00000000E+00
  0.00000000E+00  0.00000000E+00  0.00000000E+00
  0.00000000E+00  0.00000000E+00  0.00000000E+00
  0.00000000E+00  0.00000000E+00  0.00000000E+00
  0.00000000E+00  0.00000000E+00  0.00000000E+00
  0.00000000E+00  0.00000000E+00  0.00000000E+00
  0.00000000E+00  0.00000000E+00  0.00000000E+00
  0.00000000E+00  0.00000000E+00  0.00000000E+00
  0.00000000E+00  0.00000000E+00  0.00000000E+00
  0.00000000E+00  0.00000000E+00  0.00000000E+00
  0.00000000E+00  0.00000000E+00  0.00000000E+00
  0.00000000E+00  0.00000000E+00  0.00000000E+00
  0.00000000E+00  0.00000000E+00  0.00000000E+00
  0.00000000E+00  0.00000000E+00  0.00000000E+00
  0.00000000E+00  0.00000000E+00  0.00000000E+00
  0.00000000E+00  0.00000000E+00  0.00000000E+00
  0.00000000E+00  0.00000000E+00  0.00000000E+00
  0.00000000E+00  0.00000000E+00  0.00000000E+00
  0.00000000E+00  0.00000000E+00  0.00000000E+00
  0.00000000E+00  0.00000000E+00  0.00000000E+00
  0.00000000E+00  0.00000000E+00  0.00000000E+00
  0.00000000E+00  0.00000000E+00  0.00000000E+00
  0.00000000E+00  0.00000000E+00  0.00000000E+00
  0.00000000E+00  0.00000000E+00  0.00000000E+00
  0.00000000E+00  0.00000000E+00  0.00000000E+00
  0.00000000E+00  0.00000000E+00  0.00000000E+00
  0.00000000E+00  0.00000000E+00  0.00000000E+00
  0.00000000E+00  0.00000000E+00  0.00000000E+00
  0.00000000E+00  0.00000000E+00  0.00000000E+00
  0.00000000E+00  0.00000000E+00  0.00000000E+00
  0.00000000E+00  0.00000000E+00  0.00000000E+00
  0.00000000E+00  0.00000000E+00  0.00000000E+00
  0.00000000E+00  0.00000000E+00  0.00000000E+00
  0.00000000E+00  0.00000000E+00  0.00000000E+00
  0.00000000E+00  0.00000000E+00  0.00000000E+00
  0.00000000E+00  0.00000000E+00  0.00000000E+00
  0.00000000E+00  0.00000000E+00  0.00000000E+00
  0.00000000E+00  0.00000000E+00  0.00000000E+00
  0.00000000E+00  0.00000000E+00  0.00000000E+00
  0.00000000E+00  0.00000000E+00  0.00000000E+00
  0.00000000E+00  0.00000000E+00  0.00000000E+00
  0.00000000E+00  0.00000000E+00  0.00000000E+00
  0.00000000E+00  0.00000000E+00  0.00000000E+00
  0.00000000E+00  0.00000000E+00  0.00000000E+00
  0.00000000E+00  0.00000000E+00  0.00000000E+00
  0.00000000E+00  0.00000000E+00  0.00000000E+00
  0.00000000E+00  0.00000000E+00  0.00000000E+00
  0.00000000E+00  0.00000000E+00  0.00000000E+00
  0.00000000E+00  0.00000000E+00  0.00000000E+00
  0.00000000E+00  0.00000000E+00  0.00000000E+00
  0.00000000E+00  0.00000000E+00  0.00000000E+00
  0.00000000E+00  0.00000000E+00  0.00000000E+00
  0.00000000E+00  0.00000000E+00  0.00000000E+00
  0.00000000E+00  0.00000000E+00  0.00000000E+00
  0.00000000E+00  0.00000000E+00  0.00000000E+00
  0.00000000E+00  0.00000000E+00  0.00000000E+00
  0.00000000E+00  0.00000000E+00  0.00000000E+00
  0.00000000E+00  0.00000000E+00  0.00000000E+00
  0.00000000E+00  0.00000000E+00  0.00000000E+00
  0.00000000E+00  0.00000000E+00  0.00000000E+00
  0.00000000E+00  0.00000000E+00  0.00000000E+00
  0.00000000E+00  0.00000000E+00  0.00000000E+00
  0.00000000E+00  0.00000000E+00  0.00000000E+00
  0.00000000E+00  0.00000000E+00  0.00000000E+00
  0.00000000E+00  0.00000000E+00  0.00000000E+00
  0.00000000E+00  0.00000000E+00  0.00000000E+00
  0.00000000E+00  0.00000000E+00  0.00000000E+00
  0.00000000E+00  0.00000000E+00  0.00000000E+00
  0.00000000E+00  0.00000000E+00  0.00000000E+00
  0.00000000E+00  0.00000000E+00  0.00000000E+00
  0.00000000E+00  0.00000000E+00  0.00000000E+00
  0.00000000E+00  0.00000000E+00  0.00000000E+00
  0.00000000E+00  0.00000000E+00  0.00000000E+00
  0.00000000E+00  0.00000000E+00  0.00000000E+00
  0.00000000E+00  0.00000000E+00  0.00000000E+00
  0.00000000E+00  0.00000000E+00  0.00000000E+00
  0.00000000E+00  0.00000000E+00  0.00000000E+00
  0.00000000E+00  0.00000000E+00  0.00000000E+00
  0.00000000E+00  0.00000000E+00  0.00000000E+00
  0.00000000E+00  0.00000000E+00  0.00000000E+00
  0.00000000E+00  0.00000000E+00  0.00000000E+00
  0.00000000E+00  0.00000000E+00  0.00000000E+00
  0.00000000E+00  0.00000000E+00  0.00000000E+00
  0.00000000E+00  0.00000000E+00  0.00000000E+00
  0.00000000E+00  0.00000000E+00  0.00000000E+00
  0.00000000E+00  0.00000000E+00  0.00000000E+00
  0.00000000E+00  0.00000000E+00  0.00000000E+00
  0.00000000E+00  0.00000000E+00  0.00000000E+00
  0.00000000E+00  0.00000000E+00  0.00000000E+00
  0.00000000E+00  0.00000000E+00  0.00000000E+00
  0.00000000E+00  0.00000000E+00  0.00000000E+00
  0.00000000E+00  0.00000000E+00  0.00000000E+00
