 C  N Cu  H  O                          
   1.00000000000000     
     8.4140850000000000    0.0000000000000000    0.0000000000000000
     0.0000000000000000    8.4141290000000009    0.0000000000000000
     0.0000000000000000    0.0000000000000000   30.0000000000000000
   C    N    Cu   H    O 
    20     4     1    48    24
Direct
  0.4304101823476578  0.0230819941058281  0.1308167339941247
  0.2836875165938822  0.1054930441266488  0.1312458344327903
  0.5775014130598161  0.1052468979639322  0.1306448240893387
  0.7266440232137741  0.8549391287723767  0.1321257903218384
  0.7265806294939807  0.0200920384631933  0.1321442604421394
  0.8476402111611242  0.1413472657601023  0.1324343678452562
  0.7627465669668612  0.2903497253053802  0.1306449605137067
  0.1341708314516201  0.0203228986426890  0.1329751250675326
  0.0134593614619559  0.1412081182499730  0.1329621978420033
  0.0984279718429294  0.2906760657107951  0.1314102818889317
  0.0159643820590173  0.4375222911696054  0.1310798032531586
  0.0980541844717801  0.5848498651746074  0.1315896996643438
  0.2832369008755005  0.7700291370202382  0.1312265075127599
  0.1342036032760198  0.8550557706723804  0.1331857731251360
  0.0131038733115212  0.7338292193492770  0.1335703086111130
  0.5773138662961372  0.7696954224382735  0.1299009980309757
  0.7623949111154141  0.5846112645242492  0.1305912629862744
  0.8474787202887994  0.7339286034589275  0.1330455771793890
  0.4304768618759867  0.8520229268202958  0.1305420280368955
  0.8448018743221438  0.4376248862774947  0.1306042033509271
  0.6005666047887859  0.2671289392176789  0.1275626767619306
  0.2604441276685830  0.2673614120663412  0.1281534546011710
  0.2599488411959185  0.6080821512285499  0.1280808770417087
  0.6008795408958922  0.6079995501702111  0.1261784281599004
  0.4306194289200210  0.4381398382382252  0.1321111565824482
  0.8729044368233904  0.9730020597943673  0.3556839968739290
  0.7684328165908612  0.8874741260833700  0.3185408517582227
  0.5953230592161789  0.5627912761644434  0.2442728729380929
  0.5480260994098971  0.7396937825335732  0.2377228324188712
  0.4288782289933227  0.4641525238101477  0.4912301401786298
  0.2619541486085416  0.5360843679168298  0.5070561507455169
  0.2813645305498300  0.4898156235678393  0.3169514938985757
  0.3196856653111409  0.5403450631181846  0.3665216012605298
  0.3988410248738932  0.1981731343677950  0.2706114459751991
  0.2519291875246170  0.1215702194995453  0.2493302623320421
  0.9655747525627798  0.7183671633250924  0.2160535282271466
  0.0820250088178996  0.6250787732710069  0.2478930228662911
  0.7733549326168410  0.3303713424601166  0.3812385112290480
  0.7944925500931175  0.4048622936093099  0.3323859221898088
  0.7048859922936686  1.0049655316192088  0.2500049105225279
  0.5595312221948827  0.9940027783909406  0.2806586689162648
  0.4419674788916810  0.2819836273207104  0.3375411455888789
  0.4789819519190418  0.1049183806267815  0.3504348525230980
  0.9312107661647555  0.5511112265242819  0.3878916459940021
  0.9041588350641225  0.7325492198711450  0.3808669209119708
  0.7045540897459756  0.3682857292573566  0.4847558802510442
  0.6591935362488996  0.4006453235351662  0.5348336585181952
  0.2536069754173637  0.3966815786755918  0.2478426538169416
  0.3382511157730862  0.5637807542872630  0.2446883924494324
  0.8408615476529688  0.5436593557861090  0.2659651336714853
  0.7920260210230193  0.3637332000710492  0.2591305207469315
  0.1963853518776277  0.3038855142205641  0.4615024129184329
  0.1787476995553593  0.1220224387587077  0.4707560978101298
  0.9116331470424410  0.2332869050480074  0.4533977356284393
  0.7487317231705171  0.1402104346754534  0.4592484701768441
  0.0435108605086020  0.6729952666880824  0.5280258769840320
  0.1981513547732020  0.7645186150374513  0.5379279373360198
  0.9871093726990977  0.2168273740202209  0.3580107977678015
  0.1007182854615435  0.1300221693029324  0.3904965554434071
  0.2992047581367906  0.6200086813104397  0.4398130538654306
  0.1628171827076672  0.6925654176598040  0.4096061307222751
  0.7076027563750985  0.8810643266493883  0.4832919403145478
  0.5906257325475116  0.9476328386834594  0.4465055832890904
  0.4304408361422612  0.8397304176429852  0.3949868609761338
  0.6036161226640409  0.8897542183751882  0.3767035335346471
  0.7832012149316886  0.6190020944491239  0.4974428306226238
  0.8918166450341697  0.6854993767737982  0.4593910411051707
  0.9433911066967664  0.1159780388440169  0.2518823230769117
  0.8741445682332147  0.1699125231410653  0.2055004932949059
  0.2757735938206257  0.8670601747568260  0.4685792130043669
  0.3984459695767444  0.9590888923137958  0.4969081138820958
  0.0926213718327829  0.0289707668309211  0.3088329507277693
  0.0611780492523445  0.8924367581259605  0.2719995630006507
  0.8006769149075568  0.8821358260872476  0.3501391943059437
  0.5185104720556004  0.6315652197132323  0.2283157967435016
  0.3171978764545303  0.4796854185418403  0.4820670450900309
  0.3156056227025483  0.4493231676290080  0.3462664821143249
  0.3348314991696497  0.2012379111896466  0.2430265225106152
  0.9870914546870109  0.6986985775410317  0.2475551195464418
  0.8496086919844126  0.3789931608782996  0.3606959547523659
  0.6384153725442601  0.9264449762359578  0.2660266018818229
  0.5001443255642365  0.1857076184432847  0.3274539812113605
  0.9589678878738851  0.6562169720757935  0.4007887578782375
  0.6477907881774945  0.4454889533162814  0.5051035537405081
  0.2378865916211804  0.5112550935656176  0.2551189139970350
  0.7589480980893266  0.4638871618128734  0.2737546511943859
  0.1321003068807539  0.2099357223133064  0.4532560020586975
  0.7950381333797215  0.2434055319643396  0.4495456247586427
  0.1485005200703652  0.6601195101659967  0.5422839294456273
  0.0425109728658781  0.1136731013179865  0.3623699690927374
  0.2773528354273233  0.7049331409643549  0.4172892540376335
  0.6339872951563373  0.9697865993054108  0.4767036267576027
  0.5064221009031878  0.9284829110254758  0.3917428385741556
  0.8560241184634346  0.7076474792142614  0.4902543089720248
  0.8490934463141531  0.1668222225697220  0.2373001091094447
  0.2835407625375070  0.9394622653835158  0.4942868657497356
  0.0914116457926247  0.0048678850228109  0.2764490128569516
 
  0.00000000E+00  0.00000000E+00  0.00000000E+00
  0.00000000E+00  0.00000000E+00  0.00000000E+00
  0.00000000E+00  0.00000000E+00  0.00000000E+00
  0.00000000E+00  0.00000000E+00  0.00000000E+00
  0.00000000E+00  0.00000000E+00  0.00000000E+00
  0.00000000E+00  0.00000000E+00  0.00000000E+00
  0.00000000E+00  0.00000000E+00  0.00000000E+00
  0.00000000E+00  0.00000000E+00  0.00000000E+00
  0.00000000E+00  0.00000000E+00  0.00000000E+00
  0.00000000E+00  0.00000000E+00  0.00000000E+00
  0.00000000E+00  0.00000000E+00  0.00000000E+00
  0.00000000E+00  0.00000000E+00  0.00000000E+00
  0.00000000E+00  0.00000000E+00  0.00000000E+00
  0.00000000E+00  0.00000000E+00  0.00000000E+00
  0.00000000E+00  0.00000000E+00  0.00000000E+00
  0.00000000E+00  0.00000000E+00  0.00000000E+00
  0.00000000E+00  0.00000000E+00  0.00000000E+00
  0.00000000E+00  0.00000000E+00  0.00000000E+00
  0.00000000E+00  0.00000000E+00  0.00000000E+00
  0.00000000E+00  0.00000000E+00  0.00000000E+00
  0.00000000E+00  0.00000000E+00  0.00000000E+00
  0.00000000E+00  0.00000000E+00  0.00000000E+00
  0.00000000E+00  0.00000000E+00  0.00000000E+00
  0.00000000E+00  0.00000000E+00  0.00000000E+00
  0.00000000E+00  0.00000000E+00  0.00000000E+00
  0.00000000E+00  0.00000000E+00  0.00000000E+00
  0.00000000E+00  0.00000000E+00  0.00000000E+00
  0.00000000E+00  0.00000000E+00  0.00000000E+00
  0.00000000E+00  0.00000000E+00  0.00000000E+00
  0.00000000E+00  0.00000000E+00  0.00000000E+00
  0.00000000E+00  0.00000000E+00  0.00000000E+00
  0.00000000E+00  0.00000000E+00  0.00000000E+00
  0.00000000E+00  0.00000000E+00  0.00000000E+00
  0.00000000E+00  0.00000000E+00  0.00000000E+00
  0.00000000E+00  0.00000000E+00  0.00000000E+00
  0.00000000E+00  0.00000000E+00  0.00000000E+00
  0.00000000E+00  0.00000000E+00  0.00000000E+00
  0.00000000E+00  0.00000000E+00  0.00000000E+00
  0.00000000E+00  0.00000000E+00  0.00000000E+00
  0.00000000E+00  0.00000000E+00  0.00000000E+00
  0.00000000E+00  0.00000000E+00  0.00000000E+00
  0.00000000E+00  0.00000000E+00  0.00000000E+00
  0.00000000E+00  0.00000000E+00  0.00000000E+00
  0.00000000E+00  0.00000000E+00  0.00000000E+00
  0.00000000E+00  0.00000000E+00  0.00000000E+00
  0.00000000E+00  0.00000000E+00  0.00000000E+00
  0.00000000E+00  0.00000000E+00  0.00000000E+00
  0.00000000E+00  0.00000000E+00  0.00000000E+00
  0.00000000E+00  0.00000000E+00  0.00000000E+00
  0.00000000E+00  0.00000000E+00  0.00000000E+00
  0.00000000E+00  0.00000000E+00  0.00000000E+00
  0.00000000E+00  0.00000000E+00  0.00000000E+00
  0.00000000E+00  0.00000000E+00  0.00000000E+00
  0.00000000E+00  0.00000000E+00  0.00000000E+00
  0.00000000E+00  0.00000000E+00  0.00000000E+00
  0.00000000E+00  0.00000000E+00  0.00000000E+00
  0.00000000E+00  0.00000000E+00  0.00000000E+00
  0.00000000E+00  0.00000000E+00  0.00000000E+00
  0.00000000E+00  0.00000000E+00  0.00000000E+00
  0.00000000E+00  0.00000000E+00  0.00000000E+00
  0.00000000E+00  0.00000000E+00  0.00000000E+00
  0.00000000E+00  0.00000000E+00  0.00000000E+00
  0.00000000E+00  0.00000000E+00  0.00000000E+00
  0.00000000E+00  0.00000000E+00  0.00000000E+00
  0.00000000E+00  0.00000000E+00  0.00000000E+00
  0.00000000E+00  0.00000000E+00  0.00000000E+00
  0.00000000E+00  0.00000000E+00  0.00000000E+00
  0.00000000E+00  0.00000000E+00  0.00000000E+00
  0.00000000E+00  0.00000000E+00  0.00000000E+00
  0.00000000E+00  0.00000000E+00  0.00000000E+00
  0.00000000E+00  0.00000000E+00  0.00000000E+00
  0.00000000E+00  0.00000000E+00  0.00000000E+00
  0.00000000E+00  0.00000000E+00  0.00000000E+00
  0.00000000E+00  0.00000000E+00  0.00000000E+00
  0.00000000E+00  0.00000000E+00  0.00000000E+00
  0.00000000E+00  0.00000000E+00  0.00000000E+00
  0.00000000E+00  0.00000000E+00  0.00000000E+00
  0.00000000E+00  0.00000000E+00  0.00000000E+00
  0.00000000E+00  0.00000000E+00  0.00000000E+00
  0.00000000E+00  0.00000000E+00  0.00000000E+00
  0.00000000E+00  0.00000000E+00  0.00000000E+00
  0.00000000E+00  0.00000000E+00  0.00000000E+00
  0.00000000E+00  0.00000000E+00  0.00000000E+00
  0.00000000E+00  0.00000000E+00  0.00000000E+00
  0.00000000E+00  0.00000000E+00  0.00000000E+00
  0.00000000E+00  0.00000000E+00  0.00000000E+00
  0.00000000E+00  0.00000000E+00  0.00000000E+00
  0.00000000E+00  0.00000000E+00  0.00000000E+00
  0.00000000E+00  0.00000000E+00  0.00000000E+00
  0.00000000E+00  0.00000000E+00  0.00000000E+00
  0.00000000E+00  0.00000000E+00  0.00000000E+00
  0.00000000E+00  0.00000000E+00  0.00000000E+00
  0.00000000E+00  0.00000000E+00  0.00000000E+00
  0.00000000E+00  0.00000000E+00  0.00000000E+00
  0.00000000E+00  0.00000000E+00  0.00000000E+00
  0.00000000E+00  0.00000000E+00  0.00000000E+00
  0.00000000E+00  0.00000000E+00  0.00000000E+00
