 C  N Cr  H  O                          
   1.00000000000000     
     8.4262443000000005    0.0000000000000000    0.0000000000000000
     0.0000000000000000    8.4262885000000001    0.0000000000000000
     0.0000000000000000    0.0000000000000000   30.0000000000000000
   C    N    Cr   H    O 
    20     4     1    46    24
Direct
  0.4998990341133949  0.0887407474222850  0.1013440959787748
  0.3532177849560534  0.1705613877968968  0.1011344185133582
  0.6456243505697336  0.1711673593100805  0.1012188948715797
  0.7954988131816546  0.9166651060031947  0.1009098295768229
  0.7957161023366089  0.0878582582717842  0.1009377510653765
  0.9140055069846140  0.2061425401034667  0.1008630638157497
  0.8308388204289479  0.3563479563345932  0.1010384707025632
  0.2041977168288181  0.0875265579739021  0.1010739552637876
  0.0854281606102899  0.2064527660908992  0.1011687911254813
  0.1682895943780945  0.3553131602983042  0.1012045364832206
  0.0866054865431768  0.5022363872733541  0.1010532173093351
  0.1689370176482395  0.6480151136281461  0.1007158865327800
  0.3540797715218714  0.8332329162887566  0.1010025867653710
  0.2039429712997956  0.9163826420035007  0.1009152030778954
  0.0857196253906126  0.7981440288675562  0.1007408160641887
  0.6465341765150666  0.8337307501854252  0.1010485772141838
  0.8316021437077207  0.6489873446911940  0.1010278327495049
  0.9143791060189159  0.7978258041683944  0.1009545847940068
  0.4998269002917171  0.9155937740648592  0.1012650992293056
  0.9133509811404853  0.5021010566997359  0.1011156527754680
  0.6668589981495859  0.3350365453555516  0.1008469910514294
  0.3322949246450611  0.3343313220613799  0.1006445923145518
  0.3328614684016801  0.6693238873260481  0.1003130147302552
  0.6672453229287261  0.6698710104093411  0.1006809124200543
  0.4995433684361058  0.5026491907406978  0.1162872371791789
  0.9926156231300928  0.3202814246758213  0.2307122502957482
  0.0281408619635005  0.2469274244965656  0.1834043599712721
  0.3802382740415771  0.1851902550611264  0.2694016323488887
  0.5547423785409122  0.2415804603846137  0.2748084439366182
  0.3347398408136405  0.9711541331115702  0.4905136964111410
  0.4287239249923216  0.1306820438357369  0.4970955525583793
  0.8434115223530831  0.0745635439921935  0.3267538792550695
  0.6739244617096469  0.1128759771216858  0.3437280718415268
  0.1474158492687314  0.6380284992250449  0.2360231463597461
  0.3189120252601674  0.6546336741479146  0.2169769351027210
  0.2238321019762721  0.9116556523635603  0.2478352582000151
  0.1395576682703790  0.0779644800995897  0.2428546678824346
  0.7245483652250765  0.7833429278500680  0.4694926426741143
  0.5959295784685271  0.8660281380322002  0.5002098205230819
  0.7615573674279236  0.8001401197265595  0.2200240665512656
  0.8250665361265344  0.6855738838635138  0.1833709260369994
  0.7626753740964303  0.3946682394131770  0.4569281787338864
  0.8243429197755147  0.4309588478572440  0.4082966017380149
  0.3869571671987193  0.3802505188179935  0.4092842998780611
  0.2747881550989313  0.4410638871072262  0.4468605701063690
  0.0145785477206291  0.5380032505399468  0.4551917529481112
  0.1255205412493693  0.6878802600637814  0.4633254842262021
  0.0805549778878456  0.0308684390846096  0.3657421169510620
  0.1052394271230186  0.9880283223591544  0.3144284782876601
  0.0714486795946425  0.8721100614036368  0.5121385041297281
  0.1001078242678051  0.9702718547227142  0.4667490911334841
  0.8335574120063611  0.8017311316332019  0.5371068613635379
  0.9570048996341355  0.7126840282323770  0.5671284469891100
  0.0832424157738150  0.7390567166810675  0.3485309723394149
  0.0921249380369166  0.6124976035298425  0.3861641783257637
  0.6841948160288521  0.1736531246434751  0.4173996321224336
  0.5432443270122814  0.0638453438007645  0.4310126960913019
  0.5229135071879044  0.4236651002762138  0.4763571365357314
  0.6233215636930722  0.5611106050889034  0.4983777804495364
  0.0042846691001533  0.2088680632462331  0.4283427813419450
  0.1894725004127339  0.1971515237535581  0.4294551898062843
  0.5291065273427334  0.6567007053489637  0.3510570980668128
  0.5371361901557031  0.8425099014421010  0.3584447991897380
  0.2984669053039489  0.5292488698860637  0.3469253690185367
  0.4171399217231299  0.4080074715131534  0.3241482124692397
  0.8223521455485925  0.0731848082716629  0.2214156641771674
  0.7237288600141908  0.0249242532600420  0.2625490220938987
  0.8899608778341233  0.8388282650061155  0.4104908736778494
  0.7392959788448925  0.7486685826952547  0.3950154569835496
  0.9908368227841087  0.5269908623950971  0.2925700187363890
  0.8974885830005613  0.5766836948342713  0.2482850969637987
 -0.0003108134673630  0.2189268136785810  0.2138613923555808
  0.4455364309732847  0.2803304636032747  0.2744218246640440
  0.4416519883947704  0.0205807931808392  0.4879208025915651
  0.7443918083373232  0.1289774939522730  0.3180964028205475
  0.2194851613933336  0.7123787710534849  0.2203633954346595
  0.2102097931096271  0.0161961060865380  0.2625523633667950
  0.6746344468279496  0.7794678470688837  0.4997155781899439
  0.7747033605221292  0.6851554736203743  0.2125659551092715
  0.8403300726310056  0.3585554387914340  0.4332389525170305
  0.3534766611182917  0.3562506216593317  0.4402060799065615
  0.1215903345109553  0.5793011347360987  0.4504078251387620
  0.0397173847626323  0.9643525553298880  0.3413011819395831
  0.1429856041871899  0.8843672351445555  0.4857717179376377
  0.9359225145788780  0.8151904188282308  0.5534553606579670
  0.1024677116588275  0.6248791714542541  0.3536155764551298
  0.6151177882516169  0.0890713390774441  0.4061751420008853
  0.6216744724393748  0.4452740734160355  0.4931168369014329
  0.0926097228528467  0.1329007081897988  0.4247574363191560
  0.6021944016450388  0.7488030353512158  0.3534099762156989
  0.4037756536661702  0.4784201262960242  0.3504433065360044
  0.7360435806337975  1.0016604927861719  0.2304842905140611
  0.8220870270198580  0.7504453043589897  0.4190347457645608
  0.9878066544301469  0.5121592444533085  0.2601993903099530
  0.4964785699783169  0.5032460397395450  0.1688315438672432
 
  0.00000000E+00  0.00000000E+00  0.00000000E+00
  0.00000000E+00  0.00000000E+00  0.00000000E+00
  0.00000000E+00  0.00000000E+00  0.00000000E+00
  0.00000000E+00  0.00000000E+00  0.00000000E+00
  0.00000000E+00  0.00000000E+00  0.00000000E+00
  0.00000000E+00  0.00000000E+00  0.00000000E+00
  0.00000000E+00  0.00000000E+00  0.00000000E+00
  0.00000000E+00  0.00000000E+00  0.00000000E+00
  0.00000000E+00  0.00000000E+00  0.00000000E+00
  0.00000000E+00  0.00000000E+00  0.00000000E+00
  0.00000000E+00  0.00000000E+00  0.00000000E+00
  0.00000000E+00  0.00000000E+00  0.00000000E+00
  0.00000000E+00  0.00000000E+00  0.00000000E+00
  0.00000000E+00  0.00000000E+00  0.00000000E+00
  0.00000000E+00  0.00000000E+00  0.00000000E+00
  0.00000000E+00  0.00000000E+00  0.00000000E+00
  0.00000000E+00  0.00000000E+00  0.00000000E+00
  0.00000000E+00  0.00000000E+00  0.00000000E+00
  0.00000000E+00  0.00000000E+00  0.00000000E+00
  0.00000000E+00  0.00000000E+00  0.00000000E+00
  0.00000000E+00  0.00000000E+00  0.00000000E+00
  0.00000000E+00  0.00000000E+00  0.00000000E+00
  0.00000000E+00  0.00000000E+00  0.00000000E+00
  0.00000000E+00  0.00000000E+00  0.00000000E+00
  0.00000000E+00  0.00000000E+00  0.00000000E+00
  0.00000000E+00  0.00000000E+00  0.00000000E+00
  0.00000000E+00  0.00000000E+00  0.00000000E+00
  0.00000000E+00  0.00000000E+00  0.00000000E+00
  0.00000000E+00  0.00000000E+00  0.00000000E+00
  0.00000000E+00  0.00000000E+00  0.00000000E+00
  0.00000000E+00  0.00000000E+00  0.00000000E+00
  0.00000000E+00  0.00000000E+00  0.00000000E+00
  0.00000000E+00  0.00000000E+00  0.00000000E+00
  0.00000000E+00  0.00000000E+00  0.00000000E+00
  0.00000000E+00  0.00000000E+00  0.00000000E+00
  0.00000000E+00  0.00000000E+00  0.00000000E+00
  0.00000000E+00  0.00000000E+00  0.00000000E+00
  0.00000000E+00  0.00000000E+00  0.00000000E+00
  0.00000000E+00  0.00000000E+00  0.00000000E+00
  0.00000000E+00  0.00000000E+00  0.00000000E+00
  0.00000000E+00  0.00000000E+00  0.00000000E+00
  0.00000000E+00  0.00000000E+00  0.00000000E+00
  0.00000000E+00  0.00000000E+00  0.00000000E+00
  0.00000000E+00  0.00000000E+00  0.00000000E+00
  0.00000000E+00  0.00000000E+00  0.00000000E+00
  0.00000000E+00  0.00000000E+00  0.00000000E+00
  0.00000000E+00  0.00000000E+00  0.00000000E+00
  0.00000000E+00  0.00000000E+00  0.00000000E+00
  0.00000000E+00  0.00000000E+00  0.00000000E+00
  0.00000000E+00  0.00000000E+00  0.00000000E+00
  0.00000000E+00  0.00000000E+00  0.00000000E+00
  0.00000000E+00  0.00000000E+00  0.00000000E+00
  0.00000000E+00  0.00000000E+00  0.00000000E+00
  0.00000000E+00  0.00000000E+00  0.00000000E+00
  0.00000000E+00  0.00000000E+00  0.00000000E+00
  0.00000000E+00  0.00000000E+00  0.00000000E+00
  0.00000000E+00  0.00000000E+00  0.00000000E+00
  0.00000000E+00  0.00000000E+00  0.00000000E+00
  0.00000000E+00  0.00000000E+00  0.00000000E+00
  0.00000000E+00  0.00000000E+00  0.00000000E+00
  0.00000000E+00  0.00000000E+00  0.00000000E+00
  0.00000000E+00  0.00000000E+00  0.00000000E+00
  0.00000000E+00  0.00000000E+00  0.00000000E+00
  0.00000000E+00  0.00000000E+00  0.00000000E+00
  0.00000000E+00  0.00000000E+00  0.00000000E+00
  0.00000000E+00  0.00000000E+00  0.00000000E+00
  0.00000000E+00  0.00000000E+00  0.00000000E+00
  0.00000000E+00  0.00000000E+00  0.00000000E+00
  0.00000000E+00  0.00000000E+00  0.00000000E+00
  0.00000000E+00  0.00000000E+00  0.00000000E+00
  0.00000000E+00  0.00000000E+00  0.00000000E+00
  0.00000000E+00  0.00000000E+00  0.00000000E+00
  0.00000000E+00  0.00000000E+00  0.00000000E+00
  0.00000000E+00  0.00000000E+00  0.00000000E+00
  0.00000000E+00  0.00000000E+00  0.00000000E+00
  0.00000000E+00  0.00000000E+00  0.00000000E+00
  0.00000000E+00  0.00000000E+00  0.00000000E+00
  0.00000000E+00  0.00000000E+00  0.00000000E+00
  0.00000000E+00  0.00000000E+00  0.00000000E+00
  0.00000000E+00  0.00000000E+00  0.00000000E+00
  0.00000000E+00  0.00000000E+00  0.00000000E+00
  0.00000000E+00  0.00000000E+00  0.00000000E+00
  0.00000000E+00  0.00000000E+00  0.00000000E+00
  0.00000000E+00  0.00000000E+00  0.00000000E+00
  0.00000000E+00  0.00000000E+00  0.00000000E+00
  0.00000000E+00  0.00000000E+00  0.00000000E+00
  0.00000000E+00  0.00000000E+00  0.00000000E+00
  0.00000000E+00  0.00000000E+00  0.00000000E+00
  0.00000000E+00  0.00000000E+00  0.00000000E+00
  0.00000000E+00  0.00000000E+00  0.00000000E+00
  0.00000000E+00  0.00000000E+00  0.00000000E+00
  0.00000000E+00  0.00000000E+00  0.00000000E+00
  0.00000000E+00  0.00000000E+00  0.00000000E+00
  0.00000000E+00  0.00000000E+00  0.00000000E+00
  0.00000000E+00  0.00000000E+00  0.00000000E+00
