 C  H  N Ni  O                          
   1.00000000000000     
     8.3752332000000003    0.0000000000000000    0.0000000000000000
     0.0000000000000000    8.3752771999999993    0.0000000000000000
     0.0000000000000000    0.0000000000000000   30.0000000000000000
   C    H    N    Ni   O 
    20    46     4     1    23
Direct
  0.5024309454844622  0.0903712226309398  0.0955382827689106
  0.3566357000962421  0.1740803337246210  0.0952454263282630
  0.6481434230650709  0.1740593942905042  0.0955646289631947
  0.7988123004225955  0.9179802141414198  0.0946966712497874
  0.7988262667523467  0.0891806337836730  0.0950068600605122
  0.9167633722018473  0.2067199091758836  0.0950702529944813
  0.8315046525615635  0.3583858517013142  0.0955931370728167
  0.2060396582495930  0.0892055439741699  0.0947170154162494
  0.0876131325854706  0.2068854834413952  0.0948837444687272
  0.1731260798186421  0.3585281821665485  0.0953128666509080
  0.0889177790896073  0.5036559062796765  0.0953887303496371
  0.1731489146712767  0.6488596255009063  0.0953183888696875
  0.3565306722789497  0.8332512699768483  0.0953693635007734
  0.2059144925435283  0.9178744153847941  0.0947204633707706
  0.0876814817731127  0.8005447817514824  0.0947658480724569
  0.6483468739974151  0.8333237117893507  0.0953675886867841
  0.8315275542394399  0.6489125536724494  0.0954280835539929
  0.9169349813208056  0.8006779854194696  0.0947043122406953
  0.5024098798840967  0.9168533712795831  0.0955206500411396
  0.9157098101221919  0.5036036493677182  0.0955260215641910
  0.9207667930655543  0.5351527822613864  0.4758475330925772
  0.9229053981143401  0.3537563396782032  0.4883446588444814
  0.1213734417273114  0.1452530418684908  0.2200066827288033
  0.1542921597150007  0.0976062167241794  0.1705892105952125
  0.3369556882304658  0.6640133017609023  0.4092968486502592
  0.2581070609623610  0.8483834759587284  0.3987059328881964
  0.5357853634650069  0.0616011471114711  0.3131612101717641
  0.6066778568643533  0.9008941161092573  0.3302661568870793
  0.4880490106047346  0.4689121788942393  0.2548310020183076
  0.9245775452210206  0.5508531717659944  0.2456106912111871
  0.5660397792910119  0.4918999633305941  0.3892118787109942
  0.3923907583760655  0.4646518478218207  0.3690944742086877
  0.4306341254321936  0.2646491849520975  0.4246193491805129
  0.2515195488671227  0.3258947669112347  0.4387627217907799
  0.7363067732956743  0.1748004254978943  0.4589495109294400
  0.8607028679298917  0.0505732043545004  0.4784409544644558
  0.4703717404176542  0.7582413040617633  0.2594925247005313
  0.4478672546393821  0.7872400382606586  0.2082312220820909
  0.1632052418262903  0.3656331303278064  0.2836319635396133
  0.3013070056871449  0.2719729871133544  0.2581127595196291
  0.5838609393257942  0.1539611351397004  0.2536215195665576
  0.4414721123340135  0.0311948223568888  0.2465250211191365
  0.8188554173966990  0.0504869730172940  0.2437447175701800
  0.8193990456901538  0.1175919306579553  0.2923156293700049
  0.1103579455623910  0.6042103604476493  0.3219725096029190
  0.0127533945530072  0.4712690543531002  0.3457426884533698
  0.1646812580646848  0.8522053721021516  0.2762417912137631
  0.1433424174163493  0.8991684057317222  0.3256808774484234
  0.6453916929916701  0.1925880450588038  0.3898842475558640
  0.5555852641061105 -0.3621536680797696  0.3276690683347768
  0.9468178902543437  0.9380069251714618  0.1974224263382026
  0.8606582124804366  0.7850448665461304  0.2143076402617709
  0.3886473364515379  0.9905029610810085  0.3622512310881665
  0.2683366559181247  1.0839112432066722  0.3940145916990310
  0.8161925900276914  0.4040454218445620  0.2568498142307786
  0.6901887916013413  0.6382383390914396  0.2904481707513681
  0.5713266062066680  1.0510762607231443  0.5053838076996119
  0.4149453819093803  0.1143798810634118  0.4831433141319897
  0.1887100114766456  0.6774426375091319  0.2196186499009765
  0.1561974897909211  0.4959380213880913  0.2210349042041222
  0.7055013181759777  0.7897779595952579  0.4459380907839967
  0.7846580542754474  0.6534986445803109  0.4182790537914391
  0.1732052834041994  0.7661630723199786  0.5210006915135497
  0.3036886911540145  0.8960316478731338  0.5061585284797245
  1.2338839947158242  0.7618995036519890  0.4507619024134170
  0.8435899016738524  0.4124884181180680  0.4125565369018050
  0.6683379746276855  0.3382993252205675  0.0958375035630946
  0.3362654178141580  0.3382883903451623  0.0955306335944418
  0.3361781636219099  0.6687826884386665  0.0956708520345234
  0.6684866879560644  0.6688549714230657  0.0957710630853418
  0.5025512278321315  0.5037326032075605  0.0958359054631471
  0.9881477275461766  0.4395026452106416  0.4754498628403727
  0.1252435970523271  0.0530818758574808  0.1994798735986560
  0.2450667140764034  0.7363492460643181  0.4170116021085496
  0.5712870939864115  1.0072439107641438  0.3409354134418762
  0.6020807384457979  0.7028992039396527  0.3035373282376828
  0.4653968793177753  0.5472601244303585  0.3797259809061566
  0.3155127129053235  0.2326333888467762  0.4310933393198318
  0.7862162704442528  0.1340631514232125  0.4874126848992267
  0.3990403312247339  0.8097835727455047  0.2370169175195413
  0.1933808796474698  0.3178881279562277  0.2545564711009948
  0.4694100600692814  0.1348071196162865  0.2602930266239862
  0.7992848535716007  0.1493670191867509  0.2615755399373631
  0.1176017863582156  0.4924492520487269  0.3323576352414845
  0.1002592191228968  0.8285208447769891  0.3025323964202181
  0.6249888166041114  0.2550165776622400  0.4169168070092176
  0.8396832799511635  0.8941036900285291  0.2046565832899751
  0.2754148614359637  0.9876898331068796  0.3741929688825973
  0.8172023996024552  0.5208474812446166  0.2562076517232801
  0.4548429951845814  0.0356835892484339  0.5046652748347850
  0.1085187690461454  0.5982134845500537  0.2110959106183791
  0.8069033761309055  0.7356137020265942  0.4412531442906025
  0.2072267804328951  0.8344909826533955  0.4966103898343758
  0.7832195741430029  0.4512833092105264  0.3866709527167455
 
  0.00000000E+00  0.00000000E+00  0.00000000E+00
  0.00000000E+00  0.00000000E+00  0.00000000E+00
  0.00000000E+00  0.00000000E+00  0.00000000E+00
  0.00000000E+00  0.00000000E+00  0.00000000E+00
  0.00000000E+00  0.00000000E+00  0.00000000E+00
  0.00000000E+00  0.00000000E+00  0.00000000E+00
  0.00000000E+00  0.00000000E+00  0.00000000E+00
  0.00000000E+00  0.00000000E+00  0.00000000E+00
  0.00000000E+00  0.00000000E+00  0.00000000E+00
  0.00000000E+00  0.00000000E+00  0.00000000E+00
  0.00000000E+00  0.00000000E+00  0.00000000E+00
  0.00000000E+00  0.00000000E+00  0.00000000E+00
  0.00000000E+00  0.00000000E+00  0.00000000E+00
  0.00000000E+00  0.00000000E+00  0.00000000E+00
  0.00000000E+00  0.00000000E+00  0.00000000E+00
  0.00000000E+00  0.00000000E+00  0.00000000E+00
  0.00000000E+00  0.00000000E+00  0.00000000E+00
  0.00000000E+00  0.00000000E+00  0.00000000E+00
  0.00000000E+00  0.00000000E+00  0.00000000E+00
  0.00000000E+00  0.00000000E+00  0.00000000E+00
  0.00000000E+00  0.00000000E+00  0.00000000E+00
  0.00000000E+00  0.00000000E+00  0.00000000E+00
  0.00000000E+00  0.00000000E+00  0.00000000E+00
  0.00000000E+00  0.00000000E+00  0.00000000E+00
  0.00000000E+00  0.00000000E+00  0.00000000E+00
  0.00000000E+00  0.00000000E+00  0.00000000E+00
  0.00000000E+00  0.00000000E+00  0.00000000E+00
  0.00000000E+00  0.00000000E+00  0.00000000E+00
  0.00000000E+00  0.00000000E+00  0.00000000E+00
  0.00000000E+00  0.00000000E+00  0.00000000E+00
  0.00000000E+00  0.00000000E+00  0.00000000E+00
  0.00000000E+00  0.00000000E+00  0.00000000E+00
  0.00000000E+00  0.00000000E+00  0.00000000E+00
  0.00000000E+00  0.00000000E+00  0.00000000E+00
  0.00000000E+00  0.00000000E+00  0.00000000E+00
  0.00000000E+00  0.00000000E+00  0.00000000E+00
  0.00000000E+00  0.00000000E+00  0.00000000E+00
  0.00000000E+00  0.00000000E+00  0.00000000E+00
  0.00000000E+00  0.00000000E+00  0.00000000E+00
  0.00000000E+00  0.00000000E+00  0.00000000E+00
  0.00000000E+00  0.00000000E+00  0.00000000E+00
  0.00000000E+00  0.00000000E+00  0.00000000E+00
  0.00000000E+00  0.00000000E+00  0.00000000E+00
  0.00000000E+00  0.00000000E+00  0.00000000E+00
  0.00000000E+00  0.00000000E+00  0.00000000E+00
  0.00000000E+00  0.00000000E+00  0.00000000E+00
  0.00000000E+00  0.00000000E+00  0.00000000E+00
  0.00000000E+00  0.00000000E+00  0.00000000E+00
  0.00000000E+00  0.00000000E+00  0.00000000E+00
  0.00000000E+00  0.00000000E+00  0.00000000E+00
  0.00000000E+00  0.00000000E+00  0.00000000E+00
  0.00000000E+00  0.00000000E+00  0.00000000E+00
  0.00000000E+00  0.00000000E+00  0.00000000E+00
  0.00000000E+00  0.00000000E+00  0.00000000E+00
  0.00000000E+00  0.00000000E+00  0.00000000E+00
  0.00000000E+00  0.00000000E+00  0.00000000E+00
  0.00000000E+00  0.00000000E+00  0.00000000E+00
  0.00000000E+00  0.00000000E+00  0.00000000E+00
  0.00000000E+00  0.00000000E+00  0.00000000E+00
  0.00000000E+00  0.00000000E+00  0.00000000E+00
  0.00000000E+00  0.00000000E+00  0.00000000E+00
  0.00000000E+00  0.00000000E+00  0.00000000E+00
  0.00000000E+00  0.00000000E+00  0.00000000E+00
  0.00000000E+00  0.00000000E+00  0.00000000E+00
  0.00000000E+00  0.00000000E+00  0.00000000E+00
  0.00000000E+00  0.00000000E+00  0.00000000E+00
  0.00000000E+00  0.00000000E+00  0.00000000E+00
  0.00000000E+00  0.00000000E+00  0.00000000E+00
  0.00000000E+00  0.00000000E+00  0.00000000E+00
  0.00000000E+00  0.00000000E+00  0.00000000E+00
  0.00000000E+00  0.00000000E+00  0.00000000E+00
  0.00000000E+00  0.00000000E+00  0.00000000E+00
  0.00000000E+00  0.00000000E+00  0.00000000E+00
  0.00000000E+00  0.00000000E+00  0.00000000E+00
  0.00000000E+00  0.00000000E+00  0.00000000E+00
  0.00000000E+00  0.00000000E+00  0.00000000E+00
  0.00000000E+00  0.00000000E+00  0.00000000E+00
  0.00000000E+00  0.00000000E+00  0.00000000E+00
  0.00000000E+00  0.00000000E+00  0.00000000E+00
  0.00000000E+00  0.00000000E+00  0.00000000E+00
  0.00000000E+00  0.00000000E+00  0.00000000E+00
  0.00000000E+00  0.00000000E+00  0.00000000E+00
  0.00000000E+00  0.00000000E+00  0.00000000E+00
  0.00000000E+00  0.00000000E+00  0.00000000E+00
  0.00000000E+00  0.00000000E+00  0.00000000E+00
  0.00000000E+00  0.00000000E+00  0.00000000E+00
  0.00000000E+00  0.00000000E+00  0.00000000E+00
  0.00000000E+00  0.00000000E+00  0.00000000E+00
  0.00000000E+00  0.00000000E+00  0.00000000E+00
  0.00000000E+00  0.00000000E+00  0.00000000E+00
  0.00000000E+00  0.00000000E+00  0.00000000E+00
  0.00000000E+00  0.00000000E+00  0.00000000E+00
  0.00000000E+00  0.00000000E+00  0.00000000E+00
  0.00000000E+00  0.00000000E+00  0.00000000E+00
