 C Co  H  N  O                          
   1.00000000000000     
     8.3817804000000002    0.0000000000000000    0.0000000000000000
     0.0000000000000000    8.3818243999999993    0.0000000000000000
     0.0000000000000000    0.0000000000000000   30.0000000000000000
   C    Co   H    N    O 
    20     1    45     4    23
Direct
  0.2038404330899899  0.4872027270409531  0.1168896318579331
  0.0573479210574471  0.5699807823183418  0.1146279371128667
  0.3502066369075800  0.5700097935455100  0.1184036478862774
  0.4997920990894985  0.3147132932298378  0.1175183825538922
  0.5002172443580485  0.4856590557076943  0.1179656890211137
  0.6187463232168587  0.6029276536176389  0.1175843144805961
  0.5336179767792895  0.7547350213854975  0.1185934059388875
  0.9075092099244968  0.4857951440403762  0.1160097155058405
  0.7887844235948601  0.6032100251321522  0.1159892459868385
  0.8739846196486913  0.7548035994410474  0.1146839809349312
  0.7905385582177541  0.9003832120923974  0.1172371387057828
  0.8741466186057780  0.0460323311112766  0.1182555201579422
  0.0574028361134588  0.2310600761685647  0.1180146334852957
  0.9073058079484744  0.3150274087570216  0.1173483435751934
  0.7888086175163924  0.1976774567322010  0.1176635389068094
  0.3500690194637039  0.2308399500936573  0.1177682470433689
  0.5337306813734730  0.0457496750415160  0.1180067110476312
  0.6186629922952503  0.1972346517230230  0.1174459615923271
  0.2037608345520755  0.3139156580177245  0.1176666688745694
  0.6175935207183050  0.9002755165867156  0.1182881493470348
  0.2029124729428754  0.8998499468657528  0.1244071022662383
  0.6096932440567764  0.8734667803618902  0.4294548337778854
  0.5703599898444036  0.0191735967759978  0.3991436474670230
  0.5926298656403926  1.0019385988926706  0.2267776639840845
  0.7323125822601263  0.0757654713367492  0.2532020759979097
  0.2014228264676521  0.6067575639698648  0.3777334953664966
  0.1942677482242180  0.4854926400237139  0.3380051635427905
  0.0749807872205606  0.8162752818261229  0.2726235237862576
  0.0699023295609462  0.7252953446169210  0.3188479584659782
  0.8521279850314686  0.4888031967664304  0.2660931271071494
  0.8070737987302826  0.6498217823509628  0.2414662526674085
  0.3109421620013511  0.2781359981117782  0.2247411823577701
  0.2863255385796662  0.1067554543505576  0.2412404052693235
  0.5925600992082785  0.4444711843211752  0.2407761892382026
  0.5792809645530468  0.2610385870318397  0.2305248490237760
  0.6226989756999430  0.6631992373890840  0.3061915094032979
  0.5618214427507529  0.7711620262497468  0.3457626283175478
  0.0693011721758161  0.2983539615746887  0.2614162604313309
  0.9292614361591874  0.2533632061085276  0.2931518997874213
  0.0507641979345172  0.2395910353145498  0.4195798929075187
  0.1676640089020171  0.1073983353517058  0.3998796994703687
  0.4233736951102411  0.3428020904299511  0.2961050508270278
  0.3287575988042107  0.2252014534567328  0.3273415101499682
  0.7946832257304991  0.9188319612365998  0.4877749492579150
  0.7747193890307070  0.7384957090311841  0.4817780149411382
  0.5496688837097200  0.2831994263448412  0.3626672442103999
  0.7081091443560259  0.3017625240147109  0.3919578422229542
  0.9779790997670412  0.4690494334674415  0.3871762381536331
  0.9228953269333975  0.4826500450011678  0.4366307118233950
  0.1849732110556840  0.9564112806681736  0.3315983507722594
  0.3430328185943216  0.9558550719163778  0.3598524461152238
  0.0286955826583005  0.7629495878300895  0.5066521114636627
  0.0460011907705988  0.5764554821784443  0.5153690310164691
  0.7484750594330586  0.1182095538167850  0.3366536697489143
  0.8713922649952386  0.9864879156513702  0.3175463231795319
  0.0497516840962216  0.0498950545732240  0.4741029965858006
  0.0128390721749057  0.0991244469102195  0.5226862331157378
  0.1395735937637625  0.3585134877674003  0.5712478544048915
  0.1939829545330507  0.3565963192124474  0.5210359545644688
  0.3588226136252191  0.7622690369828004  0.4279458328793170
  0.2067839819352279  0.6887012896546723  0.4522237034216695
  0.3396800595908755  0.8519447108272526  0.2246063349330110
  0.4423229096930492  0.8233914998694067  0.2701605394164665
  0.2840324416579573  0.2811671081429278  0.4579858582482104
  0.3455392636105061  0.4558138784152739  0.4636115801698624
  0.1234639398661874  0.9781730129083681  0.1969012276683527
  0.3714669520868092  0.7340201251162851  0.1189677707732576
  0.0359703553065793  0.7337081614660864  0.1120747615356589
  0.0363195938727333  0.0669418854174817  0.1183826787001450
  0.3710020898089550  0.0661534056430604  0.1175885520084889
  0.5455803936028722  0.9048534348179034  0.4029007447191571
  0.6832823592496469  0.0769439525783989  0.2232830883844317
  0.1302627377785005  0.5665289460499846  0.3538039756515538
  0.0462591776752763  0.8293521106114763  0.3039064281248660
  0.7629388178842705  0.5664699889099830  0.2602938280589830
  0.2269708097587437  0.1970503620517747  0.2285360614792897
  0.5140563052107737  0.3574866625420328  0.2376540989128557
  0.5272881188433773  0.7139404623014115  0.3188933297898032
  0.9882440036067133  0.3463008003404577  0.2812359307568515
  0.1302133544917280  0.1575921416252198  0.4279559393964161
  0.3788843226053753  0.3314942817111433  0.3265295054669129
  0.7138513620641677  0.8376793975094144  0.4801766241428692
  0.6354186495544524  0.2236784946179075  0.3784387939551137
  0.9135820399181084  0.4138222712126462  0.4104856239220067
  0.2551175208299665  0.0244269849112636  0.3504059392311651
  0.0251893740201511  0.6576133952301247  0.4923067323263540
  0.8119831344688275  0.0837526122233584  0.3104337587691132
  0.0023403519862157  0.0087723635180420  0.5022757773768556
  0.0976352810884852  0.3606866425208839  0.5410144074271850
  0.2920325270379443  0.6666374797347672  0.4304610966302906
  0.4193716382321589  0.8976693753425963  0.2453546338718870
  0.3354396800926246  0.3541160508386438  0.4795456162843218
  0.1717871180160559  0.8772355835419590  0.1874703243751435
 
  0.00000000E+00  0.00000000E+00  0.00000000E+00
  0.00000000E+00  0.00000000E+00  0.00000000E+00
  0.00000000E+00  0.00000000E+00  0.00000000E+00
  0.00000000E+00  0.00000000E+00  0.00000000E+00
  0.00000000E+00  0.00000000E+00  0.00000000E+00
  0.00000000E+00  0.00000000E+00  0.00000000E+00
  0.00000000E+00  0.00000000E+00  0.00000000E+00
  0.00000000E+00  0.00000000E+00  0.00000000E+00
  0.00000000E+00  0.00000000E+00  0.00000000E+00
  0.00000000E+00  0.00000000E+00  0.00000000E+00
  0.00000000E+00  0.00000000E+00  0.00000000E+00
  0.00000000E+00  0.00000000E+00  0.00000000E+00
  0.00000000E+00  0.00000000E+00  0.00000000E+00
  0.00000000E+00  0.00000000E+00  0.00000000E+00
  0.00000000E+00  0.00000000E+00  0.00000000E+00
  0.00000000E+00  0.00000000E+00  0.00000000E+00
  0.00000000E+00  0.00000000E+00  0.00000000E+00
  0.00000000E+00  0.00000000E+00  0.00000000E+00
  0.00000000E+00  0.00000000E+00  0.00000000E+00
  0.00000000E+00  0.00000000E+00  0.00000000E+00
  0.00000000E+00  0.00000000E+00  0.00000000E+00
  0.00000000E+00  0.00000000E+00  0.00000000E+00
  0.00000000E+00  0.00000000E+00  0.00000000E+00
  0.00000000E+00  0.00000000E+00  0.00000000E+00
  0.00000000E+00  0.00000000E+00  0.00000000E+00
  0.00000000E+00  0.00000000E+00  0.00000000E+00
  0.00000000E+00  0.00000000E+00  0.00000000E+00
  0.00000000E+00  0.00000000E+00  0.00000000E+00
  0.00000000E+00  0.00000000E+00  0.00000000E+00
  0.00000000E+00  0.00000000E+00  0.00000000E+00
  0.00000000E+00  0.00000000E+00  0.00000000E+00
  0.00000000E+00  0.00000000E+00  0.00000000E+00
  0.00000000E+00  0.00000000E+00  0.00000000E+00
  0.00000000E+00  0.00000000E+00  0.00000000E+00
  0.00000000E+00  0.00000000E+00  0.00000000E+00
  0.00000000E+00  0.00000000E+00  0.00000000E+00
  0.00000000E+00  0.00000000E+00  0.00000000E+00
  0.00000000E+00  0.00000000E+00  0.00000000E+00
  0.00000000E+00  0.00000000E+00  0.00000000E+00
  0.00000000E+00  0.00000000E+00  0.00000000E+00
  0.00000000E+00  0.00000000E+00  0.00000000E+00
  0.00000000E+00  0.00000000E+00  0.00000000E+00
  0.00000000E+00  0.00000000E+00  0.00000000E+00
  0.00000000E+00  0.00000000E+00  0.00000000E+00
  0.00000000E+00  0.00000000E+00  0.00000000E+00
  0.00000000E+00  0.00000000E+00  0.00000000E+00
  0.00000000E+00  0.00000000E+00  0.00000000E+00
  0.00000000E+00  0.00000000E+00  0.00000000E+00
  0.00000000E+00  0.00000000E+00  0.00000000E+00
  0.00000000E+00  0.00000000E+00  0.00000000E+00
  0.00000000E+00  0.00000000E+00  0.00000000E+00
  0.00000000E+00  0.00000000E+00  0.00000000E+00
  0.00000000E+00  0.00000000E+00  0.00000000E+00
  0.00000000E+00  0.00000000E+00  0.00000000E+00
  0.00000000E+00  0.00000000E+00  0.00000000E+00
  0.00000000E+00  0.00000000E+00  0.00000000E+00
  0.00000000E+00  0.00000000E+00  0.00000000E+00
  0.00000000E+00  0.00000000E+00  0.00000000E+00
  0.00000000E+00  0.00000000E+00  0.00000000E+00
  0.00000000E+00  0.00000000E+00  0.00000000E+00
  0.00000000E+00  0.00000000E+00  0.00000000E+00
  0.00000000E+00  0.00000000E+00  0.00000000E+00
  0.00000000E+00  0.00000000E+00  0.00000000E+00
  0.00000000E+00  0.00000000E+00  0.00000000E+00
  0.00000000E+00  0.00000000E+00  0.00000000E+00
  0.00000000E+00  0.00000000E+00  0.00000000E+00
  0.00000000E+00  0.00000000E+00  0.00000000E+00
  0.00000000E+00  0.00000000E+00  0.00000000E+00
  0.00000000E+00  0.00000000E+00  0.00000000E+00
  0.00000000E+00  0.00000000E+00  0.00000000E+00
  0.00000000E+00  0.00000000E+00  0.00000000E+00
  0.00000000E+00  0.00000000E+00  0.00000000E+00
  0.00000000E+00  0.00000000E+00  0.00000000E+00
  0.00000000E+00  0.00000000E+00  0.00000000E+00
  0.00000000E+00  0.00000000E+00  0.00000000E+00
  0.00000000E+00  0.00000000E+00  0.00000000E+00
  0.00000000E+00  0.00000000E+00  0.00000000E+00
  0.00000000E+00  0.00000000E+00  0.00000000E+00
  0.00000000E+00  0.00000000E+00  0.00000000E+00
  0.00000000E+00  0.00000000E+00  0.00000000E+00
  0.00000000E+00  0.00000000E+00  0.00000000E+00
  0.00000000E+00  0.00000000E+00  0.00000000E+00
  0.00000000E+00  0.00000000E+00  0.00000000E+00
  0.00000000E+00  0.00000000E+00  0.00000000E+00
  0.00000000E+00  0.00000000E+00  0.00000000E+00
  0.00000000E+00  0.00000000E+00  0.00000000E+00
  0.00000000E+00  0.00000000E+00  0.00000000E+00
  0.00000000E+00  0.00000000E+00  0.00000000E+00
  0.00000000E+00  0.00000000E+00  0.00000000E+00
  0.00000000E+00  0.00000000E+00  0.00000000E+00
  0.00000000E+00  0.00000000E+00  0.00000000E+00
  0.00000000E+00  0.00000000E+00  0.00000000E+00
  0.00000000E+00  0.00000000E+00  0.00000000E+00
