 C  N Mn  H  O                          
   1.00000000000000     
     8.4011236000000000    0.0000000000000000    0.0000000000000000
     0.0000000000000000    8.4011677999999996    0.0000000000000000
     0.0000000000000000    0.0000000000000000   30.0000000000000000
   C    N    Mn   H    O 
    20     4     1    48    24
Direct
  0.5003490697480379  0.0864801620943403  0.0980641310708996
  0.3540898586589967  0.1687670604566206  0.0985442559597997
  0.6467305045362526  0.1685822270408465  0.0979517023912510
  0.7967400313857204  0.9181135310186069  0.0986031668896055
  0.7965878655375690  0.0840031803684456  0.0987251476156498
  0.9167994187324414  0.2061520732910956  0.1000332260549077
  0.8338662910654530  0.3534105451322626  0.0995314218572337
  0.2040601046870872  0.0840741251543867  0.0988968986246937
  0.0842135243938557  0.2061212749111618  0.0999302263486137
  0.1668653719726145  0.3532142203594619  0.0999896942353407
  0.0859533025594769  0.5011180135471670  0.1001527525273049
  0.1669459200944405  0.6488691244059009  0.1001827243679588
  0.3540925714416876  0.8335577230916684  0.0988112228165254
  0.2041491059189579  0.9181371431891803  0.0989761868484560
  0.0841305102956953  0.7960122462152246  0.0999202742815978
  0.6467728531955084  0.8335728153437413  0.0979384944654130
  0.8338164489283240  0.6489216737017972  0.0993629982156892
  0.9168050093032672  0.7960745963808369  0.0996807705637252
  0.5004069653472157  0.9157938829708511  0.0981431299925017
  0.9147931567624801  0.5012202361370728  0.0997566147960381
  0.6687787910126962  0.3304914183341773  0.0981081408119495
  0.3321727062803848  0.3306080791045005  0.0990814141790661
  0.3323398561243459  0.6716748979803783  0.0995810814821385
  0.6687286792978734  0.6718782516998931  0.0980227393383924
  0.5011072862356484  0.5015124635015128  0.1051271895244617
  0.0597150339154091  0.5954348287207237  0.2241449094279702
  0.9732419098367328  0.6750149178740511  0.1842118871899977
  0.7103218600881918  0.4858468353406369  0.3338875269218841
  0.7495590638914545  0.6684032405039165  0.3328013794661199
  0.4121650145417423  0.7057273495327040  0.7186167372863494
  0.4180023279138852  0.6006797803364236  0.6765055078513439
  0.0960400461378481  0.2997672076919218  0.3485016375381574
  0.0566641069229727  0.3154895132533591  0.3984806453926643
  0.8899346317431029  0.8512134412195662  0.2473477888717647
  0.8423625492937316  0.0326812679417081  0.2459988163586432
  0.4654588231672670  0.1366223287634094  0.2786705444673472
  0.5790045770487178  0.2699047484538219  0.2635358721497175
  0.9814625187602719  0.3976362773553298  0.4713003430599377
  0.9640099387975436  0.5368896801508192  0.4366622987893839
  0.5850250627935701  0.6493159032718299  0.2696193187275066
  0.6177633126164475  0.7937100724170787  0.2398828518258964
  0.2204766515358090  0.0791004809001462  0.3818641414443769
  0.2105077447617044  0.8945190565108203  0.3928662738926120
  0.7985062879611646  0.0296868683602116  0.4764021512994725
  0.7146202734316112  0.1668984479938523  0.5022816377821908
  0.6447303768122481  0.4184171786111249  0.4740757459778607
  0.4929773654798507  0.3667869402833085  0.5006118271539457
  0.6168628026523959  0.4159690488000239  0.1868773345208652
  0.5310680288409980  0.5759673744483633  0.2005528262577054
  0.7479602455505767  0.9330932658712594  0.3724081944502702
  0.8516422216721483  0.9130565314487457  0.3290520150969922
  0.3674208591334771  0.9319235940743247  0.6716066871607520
  0.4435740391716433  0.0975579684276983  0.6685891959736102
 -0.0099163091449660  0.1303408628251513  0.5216492007085558
  0.1501114894375705  0.0423138429107854  0.5269703784850851
  0.4328076350795000  0.6618015176599163  0.4584662691446728
  0.5581609134038623  0.7888455766462209  0.4447909664960794
  0.9702455227503771  0.7844723410002455  0.4019402905725328
  0.0424689267477152  0.7704679072865830  0.4516095639169296
  0.6678741690791220  0.7036273752979193  0.5144846209108195
  0.7263560068127669  0.8507261615913539  0.5401027741445859
  0.4618939702798680  0.9886746829693360  0.4021704453285931
  0.5623684181613131  0.0842263453345414  0.4370583847990862
  0.7762309240734204  0.3358642709015564  0.4000558906867735
  0.6519300837175424  0.2391728658586638  0.3723554870648829
  0.2097974107483877  0.3340650007451406  0.5302186878744061
  0.2849535772333139  0.4589710353840954  0.5621301554396857
  0.8976802342232475  0.3379323257848038  0.2200740042667588
  0.8470582688505631  0.2346234910905067  0.1802136737035676
  0.9523611275196728  0.7402649578208915  0.5252145339095216
  0.1218661137753340  0.6635470268479580  0.5206966177938218
  0.2800302553433235  0.3641602847154571  0.2472145601386457
  0.2621519060874061  0.4020735142492890  0.1978681642640290
  0.9669295683012882  0.6612318107208227  0.2164667209062258
  0.7128294764974509  0.5796355430042367  0.3142770228278798
  0.4428319888502465  0.7070093059177152  0.6873262870744720
  0.1392164948426558  0.2775439450538782  0.3779726720803760
  0.8249150958553189  0.9332928443855506  0.2623673167792231
  0.4812414130656723  0.2513981819080258  0.2803953703463105
  0.9185427600646582  0.4322350070682779  0.4458393583524622
  0.5413443856928477  0.7065852868480513  0.2433317959945846
  0.2818521899949321  0.9782293947592439  0.3820485319294124
  0.7864398236881779  0.0739172039417198  0.5062407685504298
  0.5877665237122220  0.3252893620987232  0.4854405632510078
  0.5249020908754666  0.4826584996593551  0.1792790103473240
  0.8349263711136623  0.8708336446521840  0.3593876739148371
  0.3429494200718510  0.0452618624495528  0.6750905858022569
  0.1056593690067102  0.1493465992409503  0.5249913628035608
  0.5455066120162806  0.6872067182967410  0.4609958635969454
  0.0491349470675815  0.7287247940663617  0.4208741740234773
  0.7388472960087348  0.7349316446147511  0.5391790216461879
  0.5718748568325630  0.9958200510509293  0.4161217281179589
  0.7469339873345147  0.3049438132427329  0.3696977247796968
  0.2672074590601924  0.4378118260382448  0.5306105026598611
  0.8133634463894779  0.2653611678520006  0.2103039804805824
  0.0628686160080780  0.7619165976183122  0.5149955768937550
  0.1990890154815244  0.3940817646028987  0.2251427355976077
 
  0.00000000E+00  0.00000000E+00  0.00000000E+00
  0.00000000E+00  0.00000000E+00  0.00000000E+00
  0.00000000E+00  0.00000000E+00  0.00000000E+00
  0.00000000E+00  0.00000000E+00  0.00000000E+00
  0.00000000E+00  0.00000000E+00  0.00000000E+00
  0.00000000E+00  0.00000000E+00  0.00000000E+00
  0.00000000E+00  0.00000000E+00  0.00000000E+00
  0.00000000E+00  0.00000000E+00  0.00000000E+00
  0.00000000E+00  0.00000000E+00  0.00000000E+00
  0.00000000E+00  0.00000000E+00  0.00000000E+00
  0.00000000E+00  0.00000000E+00  0.00000000E+00
  0.00000000E+00  0.00000000E+00  0.00000000E+00
  0.00000000E+00  0.00000000E+00  0.00000000E+00
  0.00000000E+00  0.00000000E+00  0.00000000E+00
  0.00000000E+00  0.00000000E+00  0.00000000E+00
  0.00000000E+00  0.00000000E+00  0.00000000E+00
  0.00000000E+00  0.00000000E+00  0.00000000E+00
  0.00000000E+00  0.00000000E+00  0.00000000E+00
  0.00000000E+00  0.00000000E+00  0.00000000E+00
  0.00000000E+00  0.00000000E+00  0.00000000E+00
  0.00000000E+00  0.00000000E+00  0.00000000E+00
  0.00000000E+00  0.00000000E+00  0.00000000E+00
  0.00000000E+00  0.00000000E+00  0.00000000E+00
  0.00000000E+00  0.00000000E+00  0.00000000E+00
  0.00000000E+00  0.00000000E+00  0.00000000E+00
  0.00000000E+00  0.00000000E+00  0.00000000E+00
  0.00000000E+00  0.00000000E+00  0.00000000E+00
  0.00000000E+00  0.00000000E+00  0.00000000E+00
  0.00000000E+00  0.00000000E+00  0.00000000E+00
  0.00000000E+00  0.00000000E+00  0.00000000E+00
  0.00000000E+00  0.00000000E+00  0.00000000E+00
  0.00000000E+00  0.00000000E+00  0.00000000E+00
  0.00000000E+00  0.00000000E+00  0.00000000E+00
  0.00000000E+00  0.00000000E+00  0.00000000E+00
  0.00000000E+00  0.00000000E+00  0.00000000E+00
  0.00000000E+00  0.00000000E+00  0.00000000E+00
  0.00000000E+00  0.00000000E+00  0.00000000E+00
  0.00000000E+00  0.00000000E+00  0.00000000E+00
  0.00000000E+00  0.00000000E+00  0.00000000E+00
  0.00000000E+00  0.00000000E+00  0.00000000E+00
  0.00000000E+00  0.00000000E+00  0.00000000E+00
  0.00000000E+00  0.00000000E+00  0.00000000E+00
  0.00000000E+00  0.00000000E+00  0.00000000E+00
  0.00000000E+00  0.00000000E+00  0.00000000E+00
  0.00000000E+00  0.00000000E+00  0.00000000E+00
  0.00000000E+00  0.00000000E+00  0.00000000E+00
  0.00000000E+00  0.00000000E+00  0.00000000E+00
  0.00000000E+00  0.00000000E+00  0.00000000E+00
  0.00000000E+00  0.00000000E+00  0.00000000E+00
  0.00000000E+00  0.00000000E+00  0.00000000E+00
  0.00000000E+00  0.00000000E+00  0.00000000E+00
  0.00000000E+00  0.00000000E+00  0.00000000E+00
  0.00000000E+00  0.00000000E+00  0.00000000E+00
  0.00000000E+00  0.00000000E+00  0.00000000E+00
  0.00000000E+00  0.00000000E+00  0.00000000E+00
  0.00000000E+00  0.00000000E+00  0.00000000E+00
  0.00000000E+00  0.00000000E+00  0.00000000E+00
  0.00000000E+00  0.00000000E+00  0.00000000E+00
  0.00000000E+00  0.00000000E+00  0.00000000E+00
  0.00000000E+00  0.00000000E+00  0.00000000E+00
  0.00000000E+00  0.00000000E+00  0.00000000E+00
  0.00000000E+00  0.00000000E+00  0.00000000E+00
  0.00000000E+00  0.00000000E+00  0.00000000E+00
  0.00000000E+00  0.00000000E+00  0.00000000E+00
  0.00000000E+00  0.00000000E+00  0.00000000E+00
  0.00000000E+00  0.00000000E+00  0.00000000E+00
  0.00000000E+00  0.00000000E+00  0.00000000E+00
  0.00000000E+00  0.00000000E+00  0.00000000E+00
  0.00000000E+00  0.00000000E+00  0.00000000E+00
  0.00000000E+00  0.00000000E+00  0.00000000E+00
  0.00000000E+00  0.00000000E+00  0.00000000E+00
  0.00000000E+00  0.00000000E+00  0.00000000E+00
  0.00000000E+00  0.00000000E+00  0.00000000E+00
  0.00000000E+00  0.00000000E+00  0.00000000E+00
  0.00000000E+00  0.00000000E+00  0.00000000E+00
  0.00000000E+00  0.00000000E+00  0.00000000E+00
  0.00000000E+00  0.00000000E+00  0.00000000E+00
  0.00000000E+00  0.00000000E+00  0.00000000E+00
  0.00000000E+00  0.00000000E+00  0.00000000E+00
  0.00000000E+00  0.00000000E+00  0.00000000E+00
  0.00000000E+00  0.00000000E+00  0.00000000E+00
  0.00000000E+00  0.00000000E+00  0.00000000E+00
  0.00000000E+00  0.00000000E+00  0.00000000E+00
  0.00000000E+00  0.00000000E+00  0.00000000E+00
  0.00000000E+00  0.00000000E+00  0.00000000E+00
  0.00000000E+00  0.00000000E+00  0.00000000E+00
  0.00000000E+00  0.00000000E+00  0.00000000E+00
  0.00000000E+00  0.00000000E+00  0.00000000E+00
  0.00000000E+00  0.00000000E+00  0.00000000E+00
  0.00000000E+00  0.00000000E+00  0.00000000E+00
  0.00000000E+00  0.00000000E+00  0.00000000E+00
  0.00000000E+00  0.00000000E+00  0.00000000E+00
  0.00000000E+00  0.00000000E+00  0.00000000E+00
  0.00000000E+00  0.00000000E+00  0.00000000E+00
  0.00000000E+00  0.00000000E+00  0.00000000E+00
  0.00000000E+00  0.00000000E+00  0.00000000E+00
  0.00000000E+00  0.00000000E+00  0.00000000E+00
