 C  N Cu  H  O                          
   1.00000000000000     
     8.4140850000000000    0.0000000000000000    0.0000000000000000
     0.0000000000000000    8.4141290000000009    0.0000000000000000
     0.0000000000000000    0.0000000000000000   30.0000000000000000
   C    N    Cu   H    O 
    20     4     1    47    25
Direct
  0.4222656683333870  0.9754285965786379  0.1261535108677767
  0.2765183906124041  0.0583154054882451  0.1264330717706949
  0.5680413035934786  0.0581954744336780  0.1253431007504334
  0.7199547734954090  0.8086140745084412  0.1261958162728926
  0.7196741932655308  0.9716275975625833  0.1262295743302580
  0.8395301598834445  0.0955990963364198  0.1255458776200181
  0.7559978622512731  0.2417306511938316  0.1241684890423824
  0.1251876063898116  0.9717803678693738  0.1270646887771849
  0.0052465987880496  0.0954521033907989  0.1260021855218173
  0.0888433077906679  0.2419164137410113  0.1251538635400800
  0.0079679560180206  0.3902613816484805  0.1247443123897100
  0.0886450093894059  0.5384363873180869  0.1255528928346479
  0.2765921324351740  0.7218065619789703  0.1264602065737040
  0.1250487235957919  0.8083913502327823  0.1271992251716431
  0.0052235850053625  0.6848258588051092  0.1264627865432734
  0.5682884358563068  0.7218795145654170  0.1248791132377128
  0.7563856415010920  0.5388269196171167  0.1239366701089989
  0.8398086256270374  0.6847537563926338  0.1257442586917580
  0.4223063330276086  0.8045938088302552  0.1259943315512200
  0.8365422013608110  0.3902904057354303  0.1240028905374006
  0.5912288237371985  0.2168404824176469  0.1229159054656206
  0.2534977118046092  0.2174098544817985  0.1245770558008319
  0.2532510242939042  0.5627798709602509  0.1247367501360869
  0.5916543666682440  0.5637442877860778  0.1218940344366427
  0.4228836155008451  0.3904173200287923  0.1270973701366687
  0.8861285517748740  0.9041507391252475  0.3608325054388796
  0.7590528684331342  0.8877435432433307  0.3236557408174123
  0.7534512779592267  0.5791086944812072  0.2679518166884660
  0.6945214804145294  0.7538577475604525  0.2569746580520754
  0.3917821260156201  0.3781691198731310  0.4610673897485272
  0.3324505489360364  0.4498730241710176  0.5054252186984850
  0.5250746534662291  0.6364625614979298  0.2959424732162302
  0.4594358668223231  0.6933870382425729  0.3438122351909074
  0.4351648750528718  0.1993896822694099  0.3101253574455037
  0.3496077751791259  0.0799422251239064  0.2765468178995647
  0.2259319030638691  0.6225963597615692  0.2339128693022226
  0.2655670249311726  0.6610446001680746  0.2831440725620148
  0.0377604210715228  0.4219426207175093  0.3893086001721436
  0.0082870597658632  0.3875850763634459  0.3378242411941009
  0.7952338985052005  0.0371988311835363  0.2535469194562444
  0.6196503347604418  0.0309580130716036  0.2708145052884091
  0.4087890336918300  0.4413004598301054  0.3378495843558960
  0.2743361265087641  0.3348362731449916  0.3582268539064266
  0.5856399263540651  0.6214329595415639  0.4134986342565083
  0.6552664856390987  0.7770264683365725  0.3886834433507548
  0.5508282418802556  0.5432524721127413  0.5415527200611312
  0.4086187653072416  0.6070791312108103  0.5704594305549557
  0.0184505814636810  0.5321743560326304  0.2748917761832914
  0.9376674038566566  0.3671937838851935  0.2634215905288067
  0.1704481237860958  0.1774530702366770  0.4840620514510279
  0.1538623836794881  0.0112552955530391  0.4612928974184063
  0.8126900855939754  0.5314261755716785  0.5348814698890652
  0.7487572136381871  0.3623225886278807  0.5215167882187509
  0.8086071778086744  0.7854836705758390  0.5025460807676303
  0.9859067625338733  0.8141133358286252  0.5162407199402446
  0.0651152038272933  0.1282549846890784  0.3666682800284651
  0.1468975339433017  0.9618655194512145  0.3798982157231988
  1.0003986587474372  0.6134167789025998  0.4601859986644606
  0.1493804797801002  0.5010511807719600  0.4542753899406621
  0.7134911516198436  0.0971534439824451  0.4856191131114800
  0.8856430649501608  0.1581377237388764  0.4757427838143856
  0.5216972935772366  0.3537728782116224  0.3990835994129586
  0.6512216520436354  0.3244805890682309  0.4376192494993248
  0.5465465977951591  0.8117724706996757  0.5111987146983371
  0.5969081625667704  0.8268728904710416  0.4613085105324080
  0.0354348059753710  0.1167310971590812  0.2420528768301267
  0.9429102268185284  0.1825723426514348  0.2000261832178538
  0.1845150633328546  0.7450401745611002  0.4250016997027758
  0.3550017383357020  0.8167250151296181  0.4165187928380495
  0.1309765554024433  0.9986366280274630  0.3030407042574977
  0.1678224106179639  0.8838806629619133  0.2623071827018682
  0.3920866850793222  0.2942784181076751  0.2516261333690119
  0.7880788570877676  0.8456197350015238  0.3533642085035437
  0.6595603188844803  0.6419877717068105  0.2590663483216714
  0.2963724902261596  0.3815373848728018  0.4806307309067649
  0.4302564886057533  0.6313200576505666  0.3174655459525259
  0.4461095818322208  0.1487694617571480  0.2801457599167005
  0.1805854948638520  0.6741943226596135  0.2601198496815316
  0.0610732094980734  0.3459472519898216  0.3651594891180968
  0.7170088406552816  0.9657080737196871  0.2677778752676219
  0.3905302737575155  0.3350686193713433  0.3520423097430820
  0.5657747458470079  0.7354850677244460  0.4079442375675959
  0.4468069230631901  0.6022235262038204  0.5398813474659528
  0.9341594067076995  0.4577885004095273  0.2845714067000548
  0.0983210360594115  0.0860254598045661  0.4810808766614447
  0.7317694962002650  0.4518418984597235  0.5422659749207879
  0.9114636902099780  0.7299230451207580  0.5083220549948492
  0.0754034492744636  1.0151337106762588  0.3581340546327656
  0.0723802357814008  0.5683608646290585  0.4374454729493909
  0.7737601823862289  0.1936051017003027  0.4783628743171269
  0.5687619251290146  0.3981549634464897  0.4267619557171647
  0.6203976644388336  0.8691329904029608  0.4916119735714040
  0.9414658472832935  0.1806580026408505  0.2325827091094295
  0.2430052405046768  0.8469086887005733  0.4207539445882889
  0.1680475977032533  0.9975462969323342  0.2713071676993107
  0.4839360129663088  0.3980533968436534  0.2024529961641970
  0.3575363436300807  0.3857470126448041  0.2305114854678962
 
  0.00000000E+00  0.00000000E+00  0.00000000E+00
  0.00000000E+00  0.00000000E+00  0.00000000E+00
  0.00000000E+00  0.00000000E+00  0.00000000E+00
  0.00000000E+00  0.00000000E+00  0.00000000E+00
  0.00000000E+00  0.00000000E+00  0.00000000E+00
  0.00000000E+00  0.00000000E+00  0.00000000E+00
  0.00000000E+00  0.00000000E+00  0.00000000E+00
  0.00000000E+00  0.00000000E+00  0.00000000E+00
  0.00000000E+00  0.00000000E+00  0.00000000E+00
  0.00000000E+00  0.00000000E+00  0.00000000E+00
  0.00000000E+00  0.00000000E+00  0.00000000E+00
  0.00000000E+00  0.00000000E+00  0.00000000E+00
  0.00000000E+00  0.00000000E+00  0.00000000E+00
  0.00000000E+00  0.00000000E+00  0.00000000E+00
  0.00000000E+00  0.00000000E+00  0.00000000E+00
  0.00000000E+00  0.00000000E+00  0.00000000E+00
  0.00000000E+00  0.00000000E+00  0.00000000E+00
  0.00000000E+00  0.00000000E+00  0.00000000E+00
  0.00000000E+00  0.00000000E+00  0.00000000E+00
  0.00000000E+00  0.00000000E+00  0.00000000E+00
  0.00000000E+00  0.00000000E+00  0.00000000E+00
  0.00000000E+00  0.00000000E+00  0.00000000E+00
  0.00000000E+00  0.00000000E+00  0.00000000E+00
  0.00000000E+00  0.00000000E+00  0.00000000E+00
  0.00000000E+00  0.00000000E+00  0.00000000E+00
  0.00000000E+00  0.00000000E+00  0.00000000E+00
  0.00000000E+00  0.00000000E+00  0.00000000E+00
  0.00000000E+00  0.00000000E+00  0.00000000E+00
  0.00000000E+00  0.00000000E+00  0.00000000E+00
  0.00000000E+00  0.00000000E+00  0.00000000E+00
  0.00000000E+00  0.00000000E+00  0.00000000E+00
  0.00000000E+00  0.00000000E+00  0.00000000E+00
  0.00000000E+00  0.00000000E+00  0.00000000E+00
  0.00000000E+00  0.00000000E+00  0.00000000E+00
  0.00000000E+00  0.00000000E+00  0.00000000E+00
  0.00000000E+00  0.00000000E+00  0.00000000E+00
  0.00000000E+00  0.00000000E+00  0.00000000E+00
  0.00000000E+00  0.00000000E+00  0.00000000E+00
  0.00000000E+00  0.00000000E+00  0.00000000E+00
  0.00000000E+00  0.00000000E+00  0.00000000E+00
  0.00000000E+00  0.00000000E+00  0.00000000E+00
  0.00000000E+00  0.00000000E+00  0.00000000E+00
  0.00000000E+00  0.00000000E+00  0.00000000E+00
  0.00000000E+00  0.00000000E+00  0.00000000E+00
  0.00000000E+00  0.00000000E+00  0.00000000E+00
  0.00000000E+00  0.00000000E+00  0.00000000E+00
  0.00000000E+00  0.00000000E+00  0.00000000E+00
  0.00000000E+00  0.00000000E+00  0.00000000E+00
  0.00000000E+00  0.00000000E+00  0.00000000E+00
  0.00000000E+00  0.00000000E+00  0.00000000E+00
  0.00000000E+00  0.00000000E+00  0.00000000E+00
  0.00000000E+00  0.00000000E+00  0.00000000E+00
  0.00000000E+00  0.00000000E+00  0.00000000E+00
  0.00000000E+00  0.00000000E+00  0.00000000E+00
  0.00000000E+00  0.00000000E+00  0.00000000E+00
  0.00000000E+00  0.00000000E+00  0.00000000E+00
  0.00000000E+00  0.00000000E+00  0.00000000E+00
  0.00000000E+00  0.00000000E+00  0.00000000E+00
  0.00000000E+00  0.00000000E+00  0.00000000E+00
  0.00000000E+00  0.00000000E+00  0.00000000E+00
  0.00000000E+00  0.00000000E+00  0.00000000E+00
  0.00000000E+00  0.00000000E+00  0.00000000E+00
  0.00000000E+00  0.00000000E+00  0.00000000E+00
  0.00000000E+00  0.00000000E+00  0.00000000E+00
  0.00000000E+00  0.00000000E+00  0.00000000E+00
  0.00000000E+00  0.00000000E+00  0.00000000E+00
  0.00000000E+00  0.00000000E+00  0.00000000E+00
  0.00000000E+00  0.00000000E+00  0.00000000E+00
  0.00000000E+00  0.00000000E+00  0.00000000E+00
  0.00000000E+00  0.00000000E+00  0.00000000E+00
  0.00000000E+00  0.00000000E+00  0.00000000E+00
  0.00000000E+00  0.00000000E+00  0.00000000E+00
  0.00000000E+00  0.00000000E+00  0.00000000E+00
  0.00000000E+00  0.00000000E+00  0.00000000E+00
  0.00000000E+00  0.00000000E+00  0.00000000E+00
  0.00000000E+00  0.00000000E+00  0.00000000E+00
  0.00000000E+00  0.00000000E+00  0.00000000E+00
  0.00000000E+00  0.00000000E+00  0.00000000E+00
  0.00000000E+00  0.00000000E+00  0.00000000E+00
  0.00000000E+00  0.00000000E+00  0.00000000E+00
  0.00000000E+00  0.00000000E+00  0.00000000E+00
  0.00000000E+00  0.00000000E+00  0.00000000E+00
  0.00000000E+00  0.00000000E+00  0.00000000E+00
  0.00000000E+00  0.00000000E+00  0.00000000E+00
  0.00000000E+00  0.00000000E+00  0.00000000E+00
  0.00000000E+00  0.00000000E+00  0.00000000E+00
  0.00000000E+00  0.00000000E+00  0.00000000E+00
  0.00000000E+00  0.00000000E+00  0.00000000E+00
  0.00000000E+00  0.00000000E+00  0.00000000E+00
  0.00000000E+00  0.00000000E+00  0.00000000E+00
  0.00000000E+00  0.00000000E+00  0.00000000E+00
  0.00000000E+00  0.00000000E+00  0.00000000E+00
  0.00000000E+00  0.00000000E+00  0.00000000E+00
  0.00000000E+00  0.00000000E+00  0.00000000E+00
  0.00000000E+00  0.00000000E+00  0.00000000E+00
  0.00000000E+00  0.00000000E+00  0.00000000E+00
  0.00000000E+00  0.00000000E+00  0.00000000E+00
