 C Co  H  N  O                          
   1.00000000000000     
     8.3817804000000002    0.0000000000000000    0.0000000000000000
     0.0000000000000000    8.3818243999999993    0.0000000000000000
     0.0000000000000000    0.0000000000000000   30.0000000000000000
   C    Co   H    N    O 
    20     1    45     4    24
Direct
  0.1987275780790630  0.4944884129325565  0.1191407974275188
  0.0530503081575333  0.5780926320379529  0.1191496624004574
  0.3444367149537125  0.5779613613792931  0.1195524408499228
  0.4957984173562707  0.3228676582162279  0.1189565726294628
  0.4955495709029593  0.4931756027461289  0.1191227960625521
  0.6131727075202592  0.6115839669842517  0.1195890566036868
  0.5288900467710487  0.7619549215115302  0.1201226764501385
  0.9016567798537167  0.4929426282367556  0.1187828211476977
  0.7839989367601553  0.6112973501486439  0.1195456679115082
  0.8684463745637111  0.7617289867526842  0.1197869382543303
  0.7852934983920852  0.9078912332300899  0.1196607396067512
  0.8681267672568547  0.0541422552640466  0.1184379663684826
  0.0530793441945670  0.2381286701725232  0.1176920648436784
  0.9020001093118168  0.3227941455327914  0.1180480470571757
  0.7840654536969919  0.2043725912130344  0.1185444113169910
  0.3445162981571934  0.2380871632983203  0.1193706673246442
  0.5289825630874342  0.0541868597451084  0.1203643798283484
  0.6133701524465844  0.2046196466090242  0.1193526004785373
  0.1987860330987695  0.3214090445749936  0.1185520828276856
  0.6119954379669404  0.9079926174433104  0.1203262928670125
  0.1970697770499372  0.9083984524307533  0.1265668036953708
  0.6106388889941592  0.8772094897581395  0.4295130886800407
  0.5768704173224712  0.0229863805021140  0.3985234629464000
  0.6324770316483677  0.9833424940755476  0.2272005713868872
  0.7515917962427021  0.0710769425797617  0.2588645821181502
  0.2088297191347254  0.5987881257001889  0.3809510285584135
  0.2052497406964730  0.4764317597171819  0.3413965194450154
  0.0564676015295815  0.8179736380067401  0.2780231020256564
  0.0733691283303878  0.7160337349853182  0.3230100444628789
  0.8520174003923517  0.4924853079467061  0.2657795944475217
  0.7899196629439424  0.6465953546096398  0.2398248616487670
  0.3204325355517094  0.2927776645944021  0.2244455582707984
  0.2244529790465228  0.1388912979744979  0.2108545118833962
  0.5907993286857689  0.4352118667688029  0.2450498152836987
  0.5883520149012358  0.2505059966259386  0.2359714453540517
  0.6334777734809730  0.6625748708972304  0.3098896335744800
  0.5685697441735059  0.7776604284893348  0.3475798082717856
  0.0690199731502800  0.3188184593243087  0.2570717649258447
  0.9449087487008870  0.2620555923354880  0.2929576799409144
  0.0456345758611895  0.2381428868792822  0.4194148773683811
  0.1635728512419747  0.1051329725563819  0.4001320760265256
  0.4213208097082723  0.3333492791632340  0.2991859372094033
  0.3265763408668310  0.2175607615891264  0.3310469435634623
  0.7921447831447954  0.9185795891030691  0.4877102043285739
  0.7762032202327405  0.7389370310779861  0.4796157017250010
  0.5525255784537902  0.2796549131172443  0.3629916913882137
  0.7132518522406346  0.3026948028173235  0.3913024728677029
  0.9809209920194791  0.4659138671324126  0.3875632509967936
  0.9164944010855787  0.4814790060667470  0.4361147373037661
  0.1865781417198839  0.9471100864740408  0.3351308581492926
  0.3448721273730651  0.9540604003355861  0.3639080894185208
  0.0270143618986315  0.7632369060817342  0.5049930761584619
  0.0462428877574998  0.5757482222746237  0.5123123585217965
  0.7626129563771713  0.1222360434390035  0.3379526813310470
  0.8872218867470761  0.9870452486804246  0.3215341045941105
  0.0452704466757626  0.0509416679518167  0.4738470495265294
  0.0082288072936979  0.1001200182232056  0.5224177186104235
  0.1414080249226743  0.3745487080533340  0.5675899025944452
  0.1974742566436503  0.3607752457169059  0.5176275497081839
  0.3639714886334239  0.7611084030050276  0.4299279156066747
  0.2110287472612901  0.6860243270954596  0.4534592609405509
  0.3788726601314624  0.8450272707279374  0.2238639630938227
  0.4864498843182745  0.7965460262872773  0.2651240156496278
  0.2843484972874420  0.2775096522701552  0.4560262103922063
  0.3525932537885016  0.4502209467131148  0.4616110573661492
 -0.0339914087698967  0.9741299348912577  0.2072677026791082
  0.3649404698593406  0.7409861414838980  0.1196099987397469
  0.0320662485265400  0.7406867196204624  0.1191983487390381
  0.0320863082385844  0.0751559448094765  0.1172263653346108
  0.3652495817168260  0.0752220256323688  0.1203016496693961
  0.5481345087254753  0.9096486991012528  0.4027261416485893
  0.7152476483205620  0.0685089283820167  0.2273429521258816
  0.1388419461458934  0.5562175895333669  0.3570703012381597
  0.0477427412091902  0.8233840589674600  0.3105299453218128
  0.7572909702652697  0.5643378470703372  0.2607520133889231
  0.2123806583522983  0.2528680563791195  0.2173355111772769
  0.5180678405725553  0.3422195044857102  0.2430680169371147
  0.5374777146705111  0.7169180235388082  0.3209485390873966
  0.9931559432306056  0.3585932668347310  0.2798635975800911
  0.1251827223607422  0.1565672138722191  0.4279982043320495
  0.3761636581992473  0.3242946396128921  0.3295916395754750
  0.7126032242943022  0.8365896870045837  0.4797130686858276
  0.6424515405723561  0.2228279771564902  0.3777017225833507
  0.9099250161841472  0.4128151670725858  0.4098898186347715
  0.2572081544935997  0.0196797663186913  0.3526865809797310
  0.0251310932524324  0.6594286987724320  0.4898237520377876
  0.8329089724750564  0.0864080602937222  0.3132085097992275
 -0.0021079393983860  0.0097340679583286  0.5020633021230054
  0.1003557693643534  0.3709152071042451  0.5372915461516140
  0.2996792358408198  0.6640918465521976  0.4326806418247872
  0.4891239286391118  0.8245084811141433  0.2330383301368389
  0.3403257808359328  0.3482117826228475  0.4773072346706638
  0.1866090138928245  0.9180460274904874  0.1905725633479738
  0.0354427610789009 -0.1192959035256525  0.2129483273695414
 
  0.00000000E+00  0.00000000E+00  0.00000000E+00
  0.00000000E+00  0.00000000E+00  0.00000000E+00
  0.00000000E+00  0.00000000E+00  0.00000000E+00
  0.00000000E+00  0.00000000E+00  0.00000000E+00
  0.00000000E+00  0.00000000E+00  0.00000000E+00
  0.00000000E+00  0.00000000E+00  0.00000000E+00
  0.00000000E+00  0.00000000E+00  0.00000000E+00
  0.00000000E+00  0.00000000E+00  0.00000000E+00
  0.00000000E+00  0.00000000E+00  0.00000000E+00
  0.00000000E+00  0.00000000E+00  0.00000000E+00
  0.00000000E+00  0.00000000E+00  0.00000000E+00
  0.00000000E+00  0.00000000E+00  0.00000000E+00
  0.00000000E+00  0.00000000E+00  0.00000000E+00
  0.00000000E+00  0.00000000E+00  0.00000000E+00
  0.00000000E+00  0.00000000E+00  0.00000000E+00
  0.00000000E+00  0.00000000E+00  0.00000000E+00
  0.00000000E+00  0.00000000E+00  0.00000000E+00
  0.00000000E+00  0.00000000E+00  0.00000000E+00
  0.00000000E+00  0.00000000E+00  0.00000000E+00
  0.00000000E+00  0.00000000E+00  0.00000000E+00
  0.00000000E+00  0.00000000E+00  0.00000000E+00
  0.00000000E+00  0.00000000E+00  0.00000000E+00
  0.00000000E+00  0.00000000E+00  0.00000000E+00
  0.00000000E+00  0.00000000E+00  0.00000000E+00
  0.00000000E+00  0.00000000E+00  0.00000000E+00
  0.00000000E+00  0.00000000E+00  0.00000000E+00
  0.00000000E+00  0.00000000E+00  0.00000000E+00
  0.00000000E+00  0.00000000E+00  0.00000000E+00
  0.00000000E+00  0.00000000E+00  0.00000000E+00
  0.00000000E+00  0.00000000E+00  0.00000000E+00
  0.00000000E+00  0.00000000E+00  0.00000000E+00
  0.00000000E+00  0.00000000E+00  0.00000000E+00
  0.00000000E+00  0.00000000E+00  0.00000000E+00
  0.00000000E+00  0.00000000E+00  0.00000000E+00
  0.00000000E+00  0.00000000E+00  0.00000000E+00
  0.00000000E+00  0.00000000E+00  0.00000000E+00
  0.00000000E+00  0.00000000E+00  0.00000000E+00
  0.00000000E+00  0.00000000E+00  0.00000000E+00
  0.00000000E+00  0.00000000E+00  0.00000000E+00
  0.00000000E+00  0.00000000E+00  0.00000000E+00
  0.00000000E+00  0.00000000E+00  0.00000000E+00
  0.00000000E+00  0.00000000E+00  0.00000000E+00
  0.00000000E+00  0.00000000E+00  0.00000000E+00
  0.00000000E+00  0.00000000E+00  0.00000000E+00
  0.00000000E+00  0.00000000E+00  0.00000000E+00
  0.00000000E+00  0.00000000E+00  0.00000000E+00
  0.00000000E+00  0.00000000E+00  0.00000000E+00
  0.00000000E+00  0.00000000E+00  0.00000000E+00
  0.00000000E+00  0.00000000E+00  0.00000000E+00
  0.00000000E+00  0.00000000E+00  0.00000000E+00
  0.00000000E+00  0.00000000E+00  0.00000000E+00
  0.00000000E+00  0.00000000E+00  0.00000000E+00
  0.00000000E+00  0.00000000E+00  0.00000000E+00
  0.00000000E+00  0.00000000E+00  0.00000000E+00
  0.00000000E+00  0.00000000E+00  0.00000000E+00
  0.00000000E+00  0.00000000E+00  0.00000000E+00
  0.00000000E+00  0.00000000E+00  0.00000000E+00
  0.00000000E+00  0.00000000E+00  0.00000000E+00
  0.00000000E+00  0.00000000E+00  0.00000000E+00
  0.00000000E+00  0.00000000E+00  0.00000000E+00
  0.00000000E+00  0.00000000E+00  0.00000000E+00
  0.00000000E+00  0.00000000E+00  0.00000000E+00
  0.00000000E+00  0.00000000E+00  0.00000000E+00
  0.00000000E+00  0.00000000E+00  0.00000000E+00
  0.00000000E+00  0.00000000E+00  0.00000000E+00
  0.00000000E+00  0.00000000E+00  0.00000000E+00
  0.00000000E+00  0.00000000E+00  0.00000000E+00
  0.00000000E+00  0.00000000E+00  0.00000000E+00
  0.00000000E+00  0.00000000E+00  0.00000000E+00
  0.00000000E+00  0.00000000E+00  0.00000000E+00
  0.00000000E+00  0.00000000E+00  0.00000000E+00
  0.00000000E+00  0.00000000E+00  0.00000000E+00
  0.00000000E+00  0.00000000E+00  0.00000000E+00
  0.00000000E+00  0.00000000E+00  0.00000000E+00
  0.00000000E+00  0.00000000E+00  0.00000000E+00
  0.00000000E+00  0.00000000E+00  0.00000000E+00
  0.00000000E+00  0.00000000E+00  0.00000000E+00
  0.00000000E+00  0.00000000E+00  0.00000000E+00
  0.00000000E+00  0.00000000E+00  0.00000000E+00
  0.00000000E+00  0.00000000E+00  0.00000000E+00
  0.00000000E+00  0.00000000E+00  0.00000000E+00
  0.00000000E+00  0.00000000E+00  0.00000000E+00
  0.00000000E+00  0.00000000E+00  0.00000000E+00
  0.00000000E+00  0.00000000E+00  0.00000000E+00
  0.00000000E+00  0.00000000E+00  0.00000000E+00
  0.00000000E+00  0.00000000E+00  0.00000000E+00
  0.00000000E+00  0.00000000E+00  0.00000000E+00
  0.00000000E+00  0.00000000E+00  0.00000000E+00
  0.00000000E+00  0.00000000E+00  0.00000000E+00
  0.00000000E+00  0.00000000E+00  0.00000000E+00
  0.00000000E+00  0.00000000E+00  0.00000000E+00
  0.00000000E+00  0.00000000E+00  0.00000000E+00
  0.00000000E+00  0.00000000E+00  0.00000000E+00
  0.00000000E+00  0.00000000E+00  0.00000000E+00
