 C Fe  H  N  O                          
   1.00000000000000     
     8.3960796999999996    0.0000000000000000    0.0000000000000000
     0.0000000000000000    8.3961237999999998    0.0000000000000000
     0.0000000000000000    0.0000000000000000   30.0000000000000000
   C    Fe   H    N    O 
    20     1    47     4    25
Direct
  0.5307494851779443  0.0682850916598681  0.0973099536715038
  0.3838265436014753  0.1504981735291682  0.0965139332666680
  0.6775149484243222  0.1505578312648004  0.0968061779865473
  0.8266355434556958  0.8998247656702447  0.0967501608884551
  0.8264271624004478  0.0655325015418774  0.0963867535573122
  0.9480444182792763  0.1868928503243756  0.0956062576955073
  0.8631044797361122  0.3361055138197444  0.0957747030953373
  0.2349062890925134  0.0653257082735843  0.0961594495815866
  0.1134825430904089  0.1866122988196218  0.0954795408143373
  0.1986129655623443  0.3359054969536036  0.0954286686957449
  0.1163677784520619  0.4826443918867738  0.0956158833720489
  0.1989537987252470  0.6291377807168606  0.0959895693175592
  0.3841146299339243  0.8147303948749223  0.0969423966406382
  0.2351930805885437  0.8997259209350503  0.0964381773659924
  0.1136934243740703  0.7782852436525410  0.0960949099236842
  0.6776581915841214  0.8147543127123498  0.0972690172658296
  0.8629382821103827  0.6292839107235731  0.0963010238596242
  0.9482280722506621  0.7784743835972034  0.0962887872624144
  0.5308755089224722  0.8971368752070076  0.0975365222751435
  0.9454355265789417  0.4827034753061499  0.0958103668696698
  0.5314407980767152  0.4816021808515643  0.1050428647394419
  0.9912471462177600  0.0385658013118989  0.1751729035369013
  0.0344677104880764  0.1728737886747471  0.2088128215133490
  0.4269852340347343  0.0367747657617066  0.3396246251507849
  0.5631849641476749  0.0208521011615928  0.3750810166140040
  0.1689408268882941  0.0253782973220052  0.4628896428343441
  0.0399930555940457  0.1107500612231548  0.4917965037720540
  0.3321948732703547  0.2713824921438136  0.3280790325827374
  0.3893281066698084  0.2058137802522012  0.2819604938207672
  0.8454439624437414  0.9881683987949815  0.2389619742984339
  0.7832527853857987  0.9080063070686012  0.2833964242581250
  0.9293883482111878  0.6962617208795373  0.3541462046880283
  0.7591059897289633  0.7282993581233022  0.3721065312476700
  0.2310735247195013  0.6757366919422815  0.2695323904309511
  0.2397713139844869  0.5495060294136355  0.3065618012304465
  0.1378380250131125  0.7375907090550783  0.4015406035821164
  0.1888195460626938  0.5722795394010122  0.3816274969974707
  0.4799050819287290  0.3813616467311419  0.4703291901779742
  0.3134726918840937  0.2967398393324248  0.4686468559595622
  0.7060781087643733  0.5763109667837140  0.3174161335999142
  0.6320388458767625  0.4268084890414208  0.2899750581875962
  0.7605015491252678  0.4356983784579930  0.4973655289650974
  0.6154932624646112  0.5156290709488069  0.5201001716066056
  0.5854541415767259  0.2937705794634439  0.2222103794310247
  0.6492249234628206  0.1567286543214182  0.2542514932872302
  0.8796538436062177  0.9637783440224343  0.3594366007787745
  0.9310247514503515  0.1420273799989259  0.3505857542626477
  0.6507376645682476  0.1746232052396417  0.5303271086604232
  0.7416508766523010  0.0638630133971223  0.5625055696462405
  0.0132765454602797  0.5500180255973262  0.4451295078384215
  0.0142414153124513  0.6069434792162077  0.4942950878955337
  0.1975227255471927  0.4038181571194875  0.1932851012726628
  0.0929827786964510  0.4357892739592924  0.2338165524723174
  0.5995591823644759  0.7014264106781121  0.4459106050348584
  0.7689858500317982  0.6293904353557093  0.4435176243486968
  0.1476084152924363  0.8714843247576380  0.5190080934348975
  0.1458782396963329  0.7590663852767183  0.5607185306814937
  0.9942224326526511  0.3888502662950186  0.3086575234096063
  0.0960661328309884  0.2384006242135472  0.2993656720771302
  0.3985333555337834  0.7379868882006820  0.5168616525179653
  0.5535644964620678  0.8403493376766388  0.5214553247980408
  0.5283610877850552  0.6671656997803229  0.2703733267004502
  0.5621937381210087  0.8213992134638111  0.2428001599959499
  0.3795582341213219  0.4120619735054744  0.3958426984382971
  0.4620251554382940  0.4805999758765923  0.3516239846164455
  0.2933411467854299  0.9583270687646684  0.3961925167454551
  0.1042796253364260  0.9960235594951132  0.3947246147495729
  0.4419963329683614  0.6089268845602965  0.2084081318713831
  0.7000188021536519  0.3140014625696050  0.0961640065074598
  0.3615847564778574  0.3137285756481153  0.0957284008670439
  0.3621688853314841  0.6512422705041836  0.0964853595001702
  0.6998622415787212  0.6513172635766222  0.0967910789849009
  0.0042943316336200  0.0583728170054356  0.2068788800438570
  0.4698873835764930  0.9661342975533493  0.3633011488391336
  0.1476299369938113  0.0677031539447147  0.4937157973473326
  0.3145254268109722  0.1830177950002561  0.3065784027054390
  0.7471189459270777  0.9591380146932446  0.2559355457006048
  0.8251273316203925  0.7398689043997325  0.3447135877308143
  0.1694143480079718  0.5899314971209971  0.2832709508971530
  0.0958667972302936  0.6308075383725725  0.3931740181014801
  0.3776693645802024  0.3789925835134030  0.4542783989524540
  0.6070638709453592  0.5234486625707179  0.3075360609350463
  0.6589124555455902  0.4106176393509342  0.5121571708181588
  0.5831212439871901  0.2544219042926770  0.2529311420321934
  0.9167777121675680  0.0612166966719963  0.3743668479999905
  0.6692201199986085  0.0616767702917714  0.5372457969324456
  0.9541203991250014  0.5389375930884758  0.4736512436928537
  0.0914703278120731  0.3798014606190022  0.2051362993394042
  0.6778523341152332  0.6597404597766174  0.4247230371975982
  0.1621090073826724  0.7585686169175241  0.5286286521048047
  0.9856529928746349  0.2738743225627945  0.3051356412492330
  0.5145314229920132  0.7352618562263619  0.5123961704748189
  0.4811465057191674  0.7381495750644733  0.2472784849785269
  0.3603794582925514  0.4399601425453913  0.3640108798568139
  0.1903519702315894  0.9414390249752491  0.4120091306433906
  0.5462994062863248  0.4585654822760030  0.1685721091339837
  0.4025763958366465  0.5166614780851188  0.1891464611584255
 
  0.00000000E+00  0.00000000E+00  0.00000000E+00
  0.00000000E+00  0.00000000E+00  0.00000000E+00
  0.00000000E+00  0.00000000E+00  0.00000000E+00
  0.00000000E+00  0.00000000E+00  0.00000000E+00
  0.00000000E+00  0.00000000E+00  0.00000000E+00
  0.00000000E+00  0.00000000E+00  0.00000000E+00
  0.00000000E+00  0.00000000E+00  0.00000000E+00
  0.00000000E+00  0.00000000E+00  0.00000000E+00
  0.00000000E+00  0.00000000E+00  0.00000000E+00
  0.00000000E+00  0.00000000E+00  0.00000000E+00
  0.00000000E+00  0.00000000E+00  0.00000000E+00
  0.00000000E+00  0.00000000E+00  0.00000000E+00
  0.00000000E+00  0.00000000E+00  0.00000000E+00
  0.00000000E+00  0.00000000E+00  0.00000000E+00
  0.00000000E+00  0.00000000E+00  0.00000000E+00
  0.00000000E+00  0.00000000E+00  0.00000000E+00
  0.00000000E+00  0.00000000E+00  0.00000000E+00
  0.00000000E+00  0.00000000E+00  0.00000000E+00
  0.00000000E+00  0.00000000E+00  0.00000000E+00
  0.00000000E+00  0.00000000E+00  0.00000000E+00
  0.00000000E+00  0.00000000E+00  0.00000000E+00
  0.00000000E+00  0.00000000E+00  0.00000000E+00
  0.00000000E+00  0.00000000E+00  0.00000000E+00
  0.00000000E+00  0.00000000E+00  0.00000000E+00
  0.00000000E+00  0.00000000E+00  0.00000000E+00
  0.00000000E+00  0.00000000E+00  0.00000000E+00
  0.00000000E+00  0.00000000E+00  0.00000000E+00
  0.00000000E+00  0.00000000E+00  0.00000000E+00
  0.00000000E+00  0.00000000E+00  0.00000000E+00
  0.00000000E+00  0.00000000E+00  0.00000000E+00
  0.00000000E+00  0.00000000E+00  0.00000000E+00
  0.00000000E+00  0.00000000E+00  0.00000000E+00
  0.00000000E+00  0.00000000E+00  0.00000000E+00
  0.00000000E+00  0.00000000E+00  0.00000000E+00
  0.00000000E+00  0.00000000E+00  0.00000000E+00
  0.00000000E+00  0.00000000E+00  0.00000000E+00
  0.00000000E+00  0.00000000E+00  0.00000000E+00
  0.00000000E+00  0.00000000E+00  0.00000000E+00
  0.00000000E+00  0.00000000E+00  0.00000000E+00
  0.00000000E+00  0.00000000E+00  0.00000000E+00
  0.00000000E+00  0.00000000E+00  0.00000000E+00
  0.00000000E+00  0.00000000E+00  0.00000000E+00
  0.00000000E+00  0.00000000E+00  0.00000000E+00
  0.00000000E+00  0.00000000E+00  0.00000000E+00
  0.00000000E+00  0.00000000E+00  0.00000000E+00
  0.00000000E+00  0.00000000E+00  0.00000000E+00
  0.00000000E+00  0.00000000E+00  0.00000000E+00
  0.00000000E+00  0.00000000E+00  0.00000000E+00
  0.00000000E+00  0.00000000E+00  0.00000000E+00
  0.00000000E+00  0.00000000E+00  0.00000000E+00
  0.00000000E+00  0.00000000E+00  0.00000000E+00
  0.00000000E+00  0.00000000E+00  0.00000000E+00
  0.00000000E+00  0.00000000E+00  0.00000000E+00
  0.00000000E+00  0.00000000E+00  0.00000000E+00
  0.00000000E+00  0.00000000E+00  0.00000000E+00
  0.00000000E+00  0.00000000E+00  0.00000000E+00
  0.00000000E+00  0.00000000E+00  0.00000000E+00
  0.00000000E+00  0.00000000E+00  0.00000000E+00
  0.00000000E+00  0.00000000E+00  0.00000000E+00
  0.00000000E+00  0.00000000E+00  0.00000000E+00
  0.00000000E+00  0.00000000E+00  0.00000000E+00
  0.00000000E+00  0.00000000E+00  0.00000000E+00
  0.00000000E+00  0.00000000E+00  0.00000000E+00
  0.00000000E+00  0.00000000E+00  0.00000000E+00
  0.00000000E+00  0.00000000E+00  0.00000000E+00
  0.00000000E+00  0.00000000E+00  0.00000000E+00
  0.00000000E+00  0.00000000E+00  0.00000000E+00
  0.00000000E+00  0.00000000E+00  0.00000000E+00
  0.00000000E+00  0.00000000E+00  0.00000000E+00
  0.00000000E+00  0.00000000E+00  0.00000000E+00
  0.00000000E+00  0.00000000E+00  0.00000000E+00
  0.00000000E+00  0.00000000E+00  0.00000000E+00
  0.00000000E+00  0.00000000E+00  0.00000000E+00
  0.00000000E+00  0.00000000E+00  0.00000000E+00
  0.00000000E+00  0.00000000E+00  0.00000000E+00
  0.00000000E+00  0.00000000E+00  0.00000000E+00
  0.00000000E+00  0.00000000E+00  0.00000000E+00
  0.00000000E+00  0.00000000E+00  0.00000000E+00
  0.00000000E+00  0.00000000E+00  0.00000000E+00
  0.00000000E+00  0.00000000E+00  0.00000000E+00
  0.00000000E+00  0.00000000E+00  0.00000000E+00
  0.00000000E+00  0.00000000E+00  0.00000000E+00
  0.00000000E+00  0.00000000E+00  0.00000000E+00
  0.00000000E+00  0.00000000E+00  0.00000000E+00
  0.00000000E+00  0.00000000E+00  0.00000000E+00
  0.00000000E+00  0.00000000E+00  0.00000000E+00
  0.00000000E+00  0.00000000E+00  0.00000000E+00
  0.00000000E+00  0.00000000E+00  0.00000000E+00
  0.00000000E+00  0.00000000E+00  0.00000000E+00
  0.00000000E+00  0.00000000E+00  0.00000000E+00
  0.00000000E+00  0.00000000E+00  0.00000000E+00
  0.00000000E+00  0.00000000E+00  0.00000000E+00
  0.00000000E+00  0.00000000E+00  0.00000000E+00
  0.00000000E+00  0.00000000E+00  0.00000000E+00
  0.00000000E+00  0.00000000E+00  0.00000000E+00
  0.00000000E+00  0.00000000E+00  0.00000000E+00
  0.00000000E+00  0.00000000E+00  0.00000000E+00
