 C Co  H  N  O                          
   1.00000000000000     
     8.3817804000000002    0.0000000000000000    0.0000000000000000
     0.0000000000000000    8.3818243999999993    0.0000000000000000
     0.0000000000000000    0.0000000000000000   30.0000000000000000
   C    Co   H    N    O 
    20     1    46     4    23
Direct
  0.0713462066228904  0.6024736842968725  0.1106023188345185
  0.9253876476748897  0.6857904407253088  0.1102716421548042
  0.2174718541671692  0.6856412864544222  0.1105038671149153
  0.3681465042767159  0.4302755423041608  0.1091914677109245
  0.3682400244975273  0.6010848634759025  0.1096126798151375
  0.4860805936516877  0.7188788069330878  0.1095908910253864
  0.4013997290309410  0.8697737517553920  0.1103413065428298
  0.7745350758243983  0.6011267013121717  0.1093000056246179
  0.6567752832957312  0.7189405527385934  0.1094787986591746
  0.7412375077176540  0.8697506655918930  0.1102815835401341
  0.6580986648173850  0.0157256362786040  0.1100659476003935
  0.7413762045016719  0.1616640408027346  0.1095561598265627
  0.9252730374753201  0.3458871394273264  0.1101815927145779
  0.7746105677542409  0.4303184440582234  0.1088842959228808
  0.6567235690427904  0.3125277584584161  0.1082866899925555
  0.2174129140521472  0.3458193645027963  0.1102006882999903
  0.4012728795089464  0.1617204634157551  0.1095178041741590
  0.4860065537505473  0.3123913767866344  0.1084483936962804
  0.0713385255234496  0.4289802858603827  0.1105638922673163
  0.4846230541393814  0.0157086102307880  0.1100454755718361
  0.0711439122333482  0.0166251038850137  0.1128023562062692
  0.8063376736602982  0.8507979909517799  0.4345538404591265
  0.7445728751242900  1.0252049449961649  0.4228371222660237
  0.7315686050046217  0.9476462005665769  0.2342131129155269
  0.8339792588488046 -0.0049774484657408  0.2754956733541213
  0.2586455272873518  0.4571356793857846  0.3968613452268286
  0.2374827231049015  0.3531925465966535  0.3547362563996662
  0.0745051429500600  0.5648527083859839  0.2877090849228152
  0.1282186054988607  0.5769657841897072  0.3370455130287379
  0.8550623867453209  0.5737536183319156  0.2319312226960017
  0.7255309845413759  0.6070641333538989  0.2675444286085036
  0.4038720568054888  0.2660053981730705  0.2196533754359690
  0.2580681612243569  0.1412875748565539  0.2190174891276314
  0.6460181196533252  0.4188276181011354  0.2160583108085690
  0.6766477392406938  0.2354551809010267  0.2254555987801062
  0.7135341159754156  0.5291853524811375  0.3521000858481750
  0.5647272379433852  0.4529861602926132  0.3269724689258376
  0.1294744440824435  0.3602732837274282  0.2375095588657191
  0.9592393088324670  0.3193434146431780  0.2546900754322576
  0.1225088483499462 -0.0103906980601740  0.4063461077559853
  0.3081751966338999 -0.0112630661984492  0.4016705718775214
  0.9837225855258014  1.0023770539397969  0.2091552192409984
  0.1072260282075309  0.8772731235312834  0.1915476613589076
  0.3716866247636231  0.2687855116175039  0.2898337233360649
  0.4426964587570283  0.1922090367205275  0.3334768725456796
  0.0114428011797541  0.7145288177275871  0.4881771009271972
  0.8308888751971036  0.7053528826028511  0.5025828008413122
  0.5656535178208367  0.2551812951453856  0.4172350647616753
  0.7415348629719746  0.3129647144048505  0.4222497079971453
  0.9711593760913761  0.4369744878606714  0.3931359232070054
  0.8752185729989290  0.5432640085473921  0.4270987649303326
  0.4387987832438294  0.9270725177062291  0.3370180937865692
  0.5658376188485852 -0.0331915765438580  0.3745310300708819
  0.1516770499280129  0.3317314194422300  0.5151739420206833
  0.2453523694391598  0.4892996079342017  0.5092370178574566
  0.8644296688649545  0.9142155831746137  0.3543546611757214
  0.9772419662000843  0.8227395990865864  0.3209160144412155
  0.2447886483551687  0.8242722616872136  0.4621164245887378
  0.3464112968421927  0.7785082939513194  0.5043511370563197
  0.5376293191495014  0.8446283545267684  0.5634369724642857
  0.5323579839615331  0.9752183638002636  0.5264039088526129
  0.4879123313716697  0.5943420728408090  0.3990180990064166
  0.3918121996619965  0.6152490541406371  0.4440026811053635
  0.3006073502471012  0.7430431870563525  0.2995741629412695
  0.4835506883302303  0.7114273682849778  0.3056020332963858
  0.5868044606656793  0.2076716795756914  0.4896583252452345
  0.4395874437422075  0.2464018621884572  0.5199090199374473
  0.2378638149027668  0.8494115079014678  0.1109678505584756
  0.9049262639842668  0.8494668453930942  0.1108045612165539
  0.9048838466090257  0.1820878166893451  0.1107008807592911
  0.2377624373685384  0.1821210275858272  0.1104137111180188
  0.7651830396041481  0.9179737615931588  0.4103582479296039
  0.8015846543556270  0.0321711227125061  0.2451823903689734
  0.1742121741650418  0.4149969504615792  0.3768237881399268
  0.1062961379536322  0.6441237466628775  0.3105826571034824
  0.7478957240282015  0.6187319588553095  0.2356174789235423
  0.2984472881548416  0.2387143322084966  0.2332922934979744
  0.6011408984896977  0.3111444439503536  0.2124037024218026
  0.6258451525750388  0.5530196066157932  0.3314045874505144
  0.0267705913057327  0.4100243723262738  0.2471734147829260
  0.2200058801901107  0.9788638337266482  0.4237598325109647
  0.0879601995458124  0.9915911284862450  0.1938142592631848
  0.4078915967438542  0.2952746302445963  0.3204940450811065
  0.9023896832330129  0.6979382181494118  0.4770277773402815
  0.6664111009131571  0.2264173066501612  0.4313326524217716
  0.8615310053616019  0.4669459750240104  0.4025537427965007
  0.4650450066215844  0.0048254748330776  0.3618732036684963
  0.2463462094623001  0.3880089672529246  0.5254614311238067
  0.9221528827775037  0.9253404821613985  0.3259492059564807
  0.2635032371890512  0.7359524514118558  0.4839681724410593
  0.5345343109494581  0.8567240735604921  0.5311981403560139
  0.4344800207120835  0.5354548099457401  0.4228565306545107
  0.4066322395220496  0.7949476715800178  0.2976455911797326
  0.5361692998498478  0.1802159865622570  0.5182980079117635
 
  0.00000000E+00  0.00000000E+00  0.00000000E+00
  0.00000000E+00  0.00000000E+00  0.00000000E+00
  0.00000000E+00  0.00000000E+00  0.00000000E+00
  0.00000000E+00  0.00000000E+00  0.00000000E+00
  0.00000000E+00  0.00000000E+00  0.00000000E+00
  0.00000000E+00  0.00000000E+00  0.00000000E+00
  0.00000000E+00  0.00000000E+00  0.00000000E+00
  0.00000000E+00  0.00000000E+00  0.00000000E+00
  0.00000000E+00  0.00000000E+00  0.00000000E+00
  0.00000000E+00  0.00000000E+00  0.00000000E+00
  0.00000000E+00  0.00000000E+00  0.00000000E+00
  0.00000000E+00  0.00000000E+00  0.00000000E+00
  0.00000000E+00  0.00000000E+00  0.00000000E+00
  0.00000000E+00  0.00000000E+00  0.00000000E+00
  0.00000000E+00  0.00000000E+00  0.00000000E+00
  0.00000000E+00  0.00000000E+00  0.00000000E+00
  0.00000000E+00  0.00000000E+00  0.00000000E+00
  0.00000000E+00  0.00000000E+00  0.00000000E+00
  0.00000000E+00  0.00000000E+00  0.00000000E+00
  0.00000000E+00  0.00000000E+00  0.00000000E+00
  0.00000000E+00  0.00000000E+00  0.00000000E+00
  0.00000000E+00  0.00000000E+00  0.00000000E+00
  0.00000000E+00  0.00000000E+00  0.00000000E+00
  0.00000000E+00  0.00000000E+00  0.00000000E+00
  0.00000000E+00  0.00000000E+00  0.00000000E+00
  0.00000000E+00  0.00000000E+00  0.00000000E+00
  0.00000000E+00  0.00000000E+00  0.00000000E+00
  0.00000000E+00  0.00000000E+00  0.00000000E+00
  0.00000000E+00  0.00000000E+00  0.00000000E+00
  0.00000000E+00  0.00000000E+00  0.00000000E+00
  0.00000000E+00  0.00000000E+00  0.00000000E+00
  0.00000000E+00  0.00000000E+00  0.00000000E+00
  0.00000000E+00  0.00000000E+00  0.00000000E+00
  0.00000000E+00  0.00000000E+00  0.00000000E+00
  0.00000000E+00  0.00000000E+00  0.00000000E+00
  0.00000000E+00  0.00000000E+00  0.00000000E+00
  0.00000000E+00  0.00000000E+00  0.00000000E+00
  0.00000000E+00  0.00000000E+00  0.00000000E+00
  0.00000000E+00  0.00000000E+00  0.00000000E+00
  0.00000000E+00  0.00000000E+00  0.00000000E+00
  0.00000000E+00  0.00000000E+00  0.00000000E+00
  0.00000000E+00  0.00000000E+00  0.00000000E+00
  0.00000000E+00  0.00000000E+00  0.00000000E+00
  0.00000000E+00  0.00000000E+00  0.00000000E+00
  0.00000000E+00  0.00000000E+00  0.00000000E+00
  0.00000000E+00  0.00000000E+00  0.00000000E+00
  0.00000000E+00  0.00000000E+00  0.00000000E+00
  0.00000000E+00  0.00000000E+00  0.00000000E+00
  0.00000000E+00  0.00000000E+00  0.00000000E+00
  0.00000000E+00  0.00000000E+00  0.00000000E+00
  0.00000000E+00  0.00000000E+00  0.00000000E+00
  0.00000000E+00  0.00000000E+00  0.00000000E+00
  0.00000000E+00  0.00000000E+00  0.00000000E+00
  0.00000000E+00  0.00000000E+00  0.00000000E+00
  0.00000000E+00  0.00000000E+00  0.00000000E+00
  0.00000000E+00  0.00000000E+00  0.00000000E+00
  0.00000000E+00  0.00000000E+00  0.00000000E+00
  0.00000000E+00  0.00000000E+00  0.00000000E+00
  0.00000000E+00  0.00000000E+00  0.00000000E+00
  0.00000000E+00  0.00000000E+00  0.00000000E+00
  0.00000000E+00  0.00000000E+00  0.00000000E+00
  0.00000000E+00  0.00000000E+00  0.00000000E+00
  0.00000000E+00  0.00000000E+00  0.00000000E+00
  0.00000000E+00  0.00000000E+00  0.00000000E+00
  0.00000000E+00  0.00000000E+00  0.00000000E+00
  0.00000000E+00  0.00000000E+00  0.00000000E+00
  0.00000000E+00  0.00000000E+00  0.00000000E+00
  0.00000000E+00  0.00000000E+00  0.00000000E+00
  0.00000000E+00  0.00000000E+00  0.00000000E+00
  0.00000000E+00  0.00000000E+00  0.00000000E+00
  0.00000000E+00  0.00000000E+00  0.00000000E+00
  0.00000000E+00  0.00000000E+00  0.00000000E+00
  0.00000000E+00  0.00000000E+00  0.00000000E+00
  0.00000000E+00  0.00000000E+00  0.00000000E+00
  0.00000000E+00  0.00000000E+00  0.00000000E+00
  0.00000000E+00  0.00000000E+00  0.00000000E+00
  0.00000000E+00  0.00000000E+00  0.00000000E+00
  0.00000000E+00  0.00000000E+00  0.00000000E+00
  0.00000000E+00  0.00000000E+00  0.00000000E+00
  0.00000000E+00  0.00000000E+00  0.00000000E+00
  0.00000000E+00  0.00000000E+00  0.00000000E+00
  0.00000000E+00  0.00000000E+00  0.00000000E+00
  0.00000000E+00  0.00000000E+00  0.00000000E+00
  0.00000000E+00  0.00000000E+00  0.00000000E+00
  0.00000000E+00  0.00000000E+00  0.00000000E+00
  0.00000000E+00  0.00000000E+00  0.00000000E+00
  0.00000000E+00  0.00000000E+00  0.00000000E+00
  0.00000000E+00  0.00000000E+00  0.00000000E+00
  0.00000000E+00  0.00000000E+00  0.00000000E+00
  0.00000000E+00  0.00000000E+00  0.00000000E+00
  0.00000000E+00  0.00000000E+00  0.00000000E+00
  0.00000000E+00  0.00000000E+00  0.00000000E+00
  0.00000000E+00  0.00000000E+00  0.00000000E+00
  0.00000000E+00  0.00000000E+00  0.00000000E+00
