 C  N Cr  H  O                          
   1.00000000000000     
     8.4262443000000005    0.0000000000000000    0.0000000000000000
     0.0000000000000000    8.4262885000000001    0.0000000000000000
     0.0000000000000000    0.0000000000000000   30.0000000000000000
   C    N    Cr   H    O 
    20     4     1    48    24
Direct
  0.3466953613969044  0.7689290130678635  0.1109068447229972
  0.1982877839484200  0.8493698454111309  0.1111753048848354
  0.4948176151554268  0.8493863750963029  0.1106279015238607
  0.6418838491920826  0.5997721187398968  0.1113453503108730
  0.6418781242329066  0.7668842041844656  0.1103541103998581
  0.7636225334836837  0.8865925881333820  0.1105871757812069
  0.6793555755755226  0.0364951415399658  0.1113953877658125
  0.0511458844296104  0.7668942072587918  0.1112627792639939
  0.9293030539633155  0.8866797345808798  0.1108385182237452
  0.0137102067354490  0.0365704532882541  0.1113217719777044
  0.9321349470251884  0.1832766563191834  0.1123238742059545
  0.0138290040340960  0.3300296645816162  0.1120885215242585
  0.1985488315756639  0.5168706350730176  0.1112572967188250
  0.0512076393980282  0.5996167951427949  0.1113565495678036
  0.9293603529499940  0.4796696023921289  0.1116302245907017
  0.4947878813137698  0.5170777065217576  0.1119474864256173
  0.6793791296883342  0.3301672917896323  0.1126848574448892
  0.7638020704916306  0.4798317266859625  0.1117782633475981
  0.3467960068317140  0.5976672816162977  0.1112226503472549
  0.7611272780574742  0.1832604214675534  0.1125564815892108
  0.5179324666502970  0.0142055952126645  0.1111050198428791
  0.1751391332945448  0.0140504335383997  0.1111712573648569
  0.1755112453989896  0.3519697739016887  0.1119108273527098
  0.5176168183572339  0.3521800055394142  0.1129269121291638
  0.3464698288143537  0.1816194225347674  0.1191008125140027
  0.9299910898898160  0.8061857439698098  0.3242260850887744
  0.1076499858816341  0.7713221894044745  0.3125510385899013
  0.3630894284070449  0.4850627221496423  0.2188400211413193
  0.4322456707093525  0.3943060491246168  0.2589022576832565
  1.0089376062503645  0.5679903079875007  0.5455325865620891
  0.8193699327240039  0.6787089865770797  0.4953855436353025
  0.9711016149981520  0.8571926219504258  0.2479320608526904
  0.9978590533709936  0.8694516889773001  0.1955325386948303
  0.1507489864300849  0.5953423158342509  0.1807581573783643
  0.0965453956872857  0.5464478835755632  0.2286915843659817
  0.6979762279500621  0.8333555876523365  0.3633282474555345
  0.5819357559345604  0.9673863918149870  0.3747847326264468
  0.7349903448274619  0.2120897135535445  0.4486800228989301
  0.8492650296229729  0.2441948588139577  0.4085227524408649
  0.8263245024703458  0.0925582924529696  0.2231228451328441
  0.7014269746837647  0.2100748101679959  0.2030848145606030
  0.4330785085625711  0.2252008484786817  0.4900002630071290
  0.4272388352052490  0.2679886232596360  0.4400052840140585
  0.0973436582503156  0.0457969295863738  0.4914614272972518
  0.1402375229187846  0.2924312417063799  0.4801300494213103
  0.1179988912004748  0.5356215350506300  0.5866533962471905
  0.1407621677716565  0.3260361809656165  0.5307853746497915
  0.3880506469695656  0.2560064458649123  0.2025373874296946
  0.3574759272685592  0.0589749778917897  0.1997239325923166
  0.9694972378152440  0.0441077247728083  0.4551071087743365
  0.9604870019308128  0.8061506803496509  0.4935935724632792
  1.0000993158747085  0.5861436480936753  0.4081853076922922
  0.0518944903675685  0.6056895668724099  0.4568245105826712
  0.5800294221510147  0.4758191880290231  0.4694605447596931
  0.5179127065838013  0.6497891657121136  0.4614622371604106
  0.7621185672549662  0.5266558210865009  0.3681643662511660
  0.7222807137989025  0.6103153859177695  0.4129354894823855
  0.3681453728394621  0.8195968097937903  0.2966320158668412
  0.3721814210454572  0.8064750216300374  0.3490712720422013
  0.2178570621501905  0.4165590544841642  0.4141967023234185
  0.3090636424610506  0.3470248414565259  0.3733128236229179
  0.7598307230376318  0.1952223803664966  0.3369472274887017
  0.8679520923038951  0.3299788957129541  0.3182672909585206
  0.2046071697267094  0.4126310472209784  0.3032896885599634
  0.3242245748987910  0.5434990784274999  0.3178000007713188
  0.4790562401401424  0.8365184005464013  0.2257276746738661
  0.2960414218940600  0.8072754560133221  0.2231509937885782
  0.6385559038664450  0.6778410758517454  0.1880117941868609
  0.7442132624628355  0.7953739789079972  0.2149842522491402
  0.2804192009802426  0.8853071173675869  0.4325467304488672
  0.4307556218262378  0.9848199893548147  0.4409248287790044
  0.8794433412004099  0.3499527305643939  0.2452253170226925
  0.8707702684982442  0.5248365896271674  0.2638078466092922
  0.9983992151994190  0.7662989263711277  0.3006080531522323
  0.4449547336228156  0.4049906249754504  0.2263660868613763
  0.9307828690354452  0.6963012436550683  0.5031560960191368
  0.9292651642356708  0.9039937899564923  0.2198179059244941
  0.1790394026650223  0.6068965151855775  0.2123912461774015
  0.6634250164490600  0.9390104269371762  0.3531303311699472
  0.8472461123244535  0.2138029192175661  0.4400844377625621
  0.7635598177025361  0.1888801618138221  0.2297914688469291
  0.5024875382726537  0.2298266010271348  0.4638078032373006
  0.1857680785126270  0.2534832014437078  0.5079765498667158
  0.0516266323726650  0.4823502766563825  0.5648132011942260
  0.3403329765713151  0.1632896353872346  0.1842010637930598
  0.0478299208598438  0.9731724489688257  0.4698400478153842
  0.0947091055866742  0.5775855391220204  0.4272172695590659
  0.6141236329180946  0.5867789543635402  0.4659665682524071
  0.7801015090905798  0.6258736829916807  0.3844830852764748
  0.3240627490337041  0.7610701927780147  0.3223034184832911
  0.2854625363896546  0.3256325448481337  0.4048513711884885
  0.8089815677324390  0.2964296991784645  0.3449333735725245
  0.3134257274067145  0.4271689588723476  0.3137659598100671
  0.3740024186630103  0.8882164599395715  0.2320667803726146
  0.6492910846367246  0.7266198469462769  0.2174776058815820
  0.3954121515559113  0.8848940673500021  0.4273001326456098
  0.9420515040743600  0.4338501034263023  0.2612139429915885
 
  0.00000000E+00  0.00000000E+00  0.00000000E+00
  0.00000000E+00  0.00000000E+00  0.00000000E+00
  0.00000000E+00  0.00000000E+00  0.00000000E+00
  0.00000000E+00  0.00000000E+00  0.00000000E+00
  0.00000000E+00  0.00000000E+00  0.00000000E+00
  0.00000000E+00  0.00000000E+00  0.00000000E+00
  0.00000000E+00  0.00000000E+00  0.00000000E+00
  0.00000000E+00  0.00000000E+00  0.00000000E+00
  0.00000000E+00  0.00000000E+00  0.00000000E+00
  0.00000000E+00  0.00000000E+00  0.00000000E+00
  0.00000000E+00  0.00000000E+00  0.00000000E+00
  0.00000000E+00  0.00000000E+00  0.00000000E+00
  0.00000000E+00  0.00000000E+00  0.00000000E+00
  0.00000000E+00  0.00000000E+00  0.00000000E+00
  0.00000000E+00  0.00000000E+00  0.00000000E+00
  0.00000000E+00  0.00000000E+00  0.00000000E+00
  0.00000000E+00  0.00000000E+00  0.00000000E+00
  0.00000000E+00  0.00000000E+00  0.00000000E+00
  0.00000000E+00  0.00000000E+00  0.00000000E+00
  0.00000000E+00  0.00000000E+00  0.00000000E+00
  0.00000000E+00  0.00000000E+00  0.00000000E+00
  0.00000000E+00  0.00000000E+00  0.00000000E+00
  0.00000000E+00  0.00000000E+00  0.00000000E+00
  0.00000000E+00  0.00000000E+00  0.00000000E+00
  0.00000000E+00  0.00000000E+00  0.00000000E+00
  0.00000000E+00  0.00000000E+00  0.00000000E+00
  0.00000000E+00  0.00000000E+00  0.00000000E+00
  0.00000000E+00  0.00000000E+00  0.00000000E+00
  0.00000000E+00  0.00000000E+00  0.00000000E+00
  0.00000000E+00  0.00000000E+00  0.00000000E+00
  0.00000000E+00  0.00000000E+00  0.00000000E+00
  0.00000000E+00  0.00000000E+00  0.00000000E+00
  0.00000000E+00  0.00000000E+00  0.00000000E+00
  0.00000000E+00  0.00000000E+00  0.00000000E+00
  0.00000000E+00  0.00000000E+00  0.00000000E+00
  0.00000000E+00  0.00000000E+00  0.00000000E+00
  0.00000000E+00  0.00000000E+00  0.00000000E+00
  0.00000000E+00  0.00000000E+00  0.00000000E+00
  0.00000000E+00  0.00000000E+00  0.00000000E+00
  0.00000000E+00  0.00000000E+00  0.00000000E+00
  0.00000000E+00  0.00000000E+00  0.00000000E+00
  0.00000000E+00  0.00000000E+00  0.00000000E+00
  0.00000000E+00  0.00000000E+00  0.00000000E+00
  0.00000000E+00  0.00000000E+00  0.00000000E+00
  0.00000000E+00  0.00000000E+00  0.00000000E+00
  0.00000000E+00  0.00000000E+00  0.00000000E+00
  0.00000000E+00  0.00000000E+00  0.00000000E+00
  0.00000000E+00  0.00000000E+00  0.00000000E+00
  0.00000000E+00  0.00000000E+00  0.00000000E+00
  0.00000000E+00  0.00000000E+00  0.00000000E+00
  0.00000000E+00  0.00000000E+00  0.00000000E+00
  0.00000000E+00  0.00000000E+00  0.00000000E+00
  0.00000000E+00  0.00000000E+00  0.00000000E+00
  0.00000000E+00  0.00000000E+00  0.00000000E+00
  0.00000000E+00  0.00000000E+00  0.00000000E+00
  0.00000000E+00  0.00000000E+00  0.00000000E+00
  0.00000000E+00  0.00000000E+00  0.00000000E+00
  0.00000000E+00  0.00000000E+00  0.00000000E+00
  0.00000000E+00  0.00000000E+00  0.00000000E+00
  0.00000000E+00  0.00000000E+00  0.00000000E+00
  0.00000000E+00  0.00000000E+00  0.00000000E+00
  0.00000000E+00  0.00000000E+00  0.00000000E+00
  0.00000000E+00  0.00000000E+00  0.00000000E+00
  0.00000000E+00  0.00000000E+00  0.00000000E+00
  0.00000000E+00  0.00000000E+00  0.00000000E+00
  0.00000000E+00  0.00000000E+00  0.00000000E+00
  0.00000000E+00  0.00000000E+00  0.00000000E+00
  0.00000000E+00  0.00000000E+00  0.00000000E+00
  0.00000000E+00  0.00000000E+00  0.00000000E+00
  0.00000000E+00  0.00000000E+00  0.00000000E+00
  0.00000000E+00  0.00000000E+00  0.00000000E+00
  0.00000000E+00  0.00000000E+00  0.00000000E+00
  0.00000000E+00  0.00000000E+00  0.00000000E+00
  0.00000000E+00  0.00000000E+00  0.00000000E+00
  0.00000000E+00  0.00000000E+00  0.00000000E+00
  0.00000000E+00  0.00000000E+00  0.00000000E+00
  0.00000000E+00  0.00000000E+00  0.00000000E+00
  0.00000000E+00  0.00000000E+00  0.00000000E+00
  0.00000000E+00  0.00000000E+00  0.00000000E+00
  0.00000000E+00  0.00000000E+00  0.00000000E+00
  0.00000000E+00  0.00000000E+00  0.00000000E+00
  0.00000000E+00  0.00000000E+00  0.00000000E+00
  0.00000000E+00  0.00000000E+00  0.00000000E+00
  0.00000000E+00  0.00000000E+00  0.00000000E+00
  0.00000000E+00  0.00000000E+00  0.00000000E+00
  0.00000000E+00  0.00000000E+00  0.00000000E+00
  0.00000000E+00  0.00000000E+00  0.00000000E+00
  0.00000000E+00  0.00000000E+00  0.00000000E+00
  0.00000000E+00  0.00000000E+00  0.00000000E+00
  0.00000000E+00  0.00000000E+00  0.00000000E+00
  0.00000000E+00  0.00000000E+00  0.00000000E+00
  0.00000000E+00  0.00000000E+00  0.00000000E+00
  0.00000000E+00  0.00000000E+00  0.00000000E+00
  0.00000000E+00  0.00000000E+00  0.00000000E+00
  0.00000000E+00  0.00000000E+00  0.00000000E+00
  0.00000000E+00  0.00000000E+00  0.00000000E+00
  0.00000000E+00  0.00000000E+00  0.00000000E+00
