 C  H  N Ni  O                          
   1.00000000000000     
     8.3752332000000003    0.0000000000000000    0.0000000000000000
     0.0000000000000000    8.3752771999999993    0.0000000000000000
     0.0000000000000000    0.0000000000000000   30.0000000000000000
   C    H    N    Ni   O 
    20    44     4     1    23
Direct
  0.1421354836302700  0.0300061369224105  0.0845361689585652
  0.9950801819915757  0.1121287098199898  0.0842840277130713
  0.2892618109311604  0.1119931918453122  0.0850121255843203
  0.4381952142036179  0.8620796245387634  0.0851453409538325
  0.4381777273089282  0.0266997668011217  0.0851757114822656
  0.5599371193957086  0.1480978200078222  0.0856273006537944
  0.4751181583625030  0.2973305478847366  0.0857877322273107
  0.8456363115877054  0.0269206231964782  0.0852959288966787
  0.7244781641982965  0.1482007576340365  0.0856967244723421
  0.8102665764267234  0.2974993002271424  0.0848060901048132
  0.7283215832704123  0.4444707994878055  0.0851725716943091
  0.8101242987051757  0.5916899188995211  0.0842918125246235
  0.9948536938679488  0.7768260551207855  0.0835727472402834
  0.8457145984404827  0.8621672452945296  0.0848584693608476
  0.7242992564959114  0.7406127396796391  0.0852169152435371
  0.2889070914714025  0.7764884319284497  0.0848888974700389
  0.4748564183742275  0.5912950557781873  0.0855905759826410
  0.5597889446665026  0.7407788953231619  0.0854152000192963
  0.1421368480990786  0.8587805417570672  0.0843011420515635
  0.5571839058031598  0.4444616157379672  0.0859335483328071
  0.3877318011792331  0.0705901627660881  0.4345564200723485
  0.2770495119268044  0.2044668881140836  0.4134570426057254
  0.3443679580470699  0.9145345241996001  0.2175240477728102
  0.2775711641743389  0.7608789718375765  0.2393280084043544
  0.5599331771573367  0.5750756421901189  0.5102632913665081
  0.6961179700720831  0.4500481688511555  0.5178672357541831
  0.6545009064725549  0.4838692522725294  0.3994389002165555
  0.7950577591835343  0.3642290360629727  0.4043892534860922
  0.9020663716165520  0.8157839570130425  0.2981800998474879
  0.9086291475395514  0.6415928544554795  0.3174055622480865
  0.3435769817163920  0.7639895534724196  0.5044416161204759
  0.4586914427708736  0.7839278772371104  0.4642163343983969
  0.1570821655081200  0.4611741744166112  0.4279911145665866
  0.1240713510098877  0.3868430996416524  0.3804141878395436
  0.4052073617690357  0.7357889066440572  0.3444111957997974
  0.3260116114707841  0.8910002179027213  0.3629845186869450
  0.4895604592598818  0.1308186206643086  0.3662891025220091
  0.5182654641501900  0.0643683671748101  0.3200295736999996
  0.9979906254740414  0.8275992975113611  0.2010647441907899
  0.8822085925015611  0.8432752150560096  0.1614243437715449
  0.1043244659672092  0.9676464016618902  0.2641341208421031
  0.9427838823929042  0.0528609869026687  0.2558250144644758
  0.0966826449612095  0.4413356791862909  0.2307741567958448
  0.2348407597984742  0.3530798620044259  0.2538561392596970
  0.5030173262517783  0.3882765768957605  0.3438369362092185
  0.3793629128612002  0.4711564638382058  0.3747088765230160
  0.9167166920738046  0.2618572073700677  0.5297263341149422
  0.8620887884960897  0.1966975954040824  0.4841995834991947
  0.8227959044864031  0.9122963553761693  0.5199509698781677
  0.7725543429267669  0.7276473758745459  0.5157975148898288
  0.8327070963621372  0.0533702907819858  0.4192984190410334
  0.0183317177007162  0.0802397309984523  0.4214777042027441
  0.6726781675162007  0.6368506086415234  0.2718270476271618
  0.5135901645166309  0.5650600201683987  0.2874249003707043
  0.7123818092090812  0.2413227137736237  0.2820657959149390
  0.6615622640107547  0.3737878606952654  0.2495397438607224
  0.6297954857788398  0.9299927869842858  0.2065773654190008
  0.5893264207063261  0.1025925755867353  0.2209872749280787
  0.9665964669475696  0.2291636461971121  0.3381861579889495
  0.0350220451111607  0.3631376801234254  0.3078059304364372
  0.6430131030057261  0.8420343194620736  0.4060899283339569
  0.7054622418695773  0.8647239887345308  0.4556890232436703
  0.9101015329164250  0.5239221628433338  0.4527848747322348
  0.0151099565980187  0.6456936638455074  0.4782430145620309
  0.3124072524886567  0.2750466676734519  0.0841809932302451
  0.9725336880292638  0.2743905771526733  0.0817647406678968
  0.9722757736144936  0.6145954841267499  0.0809921412816285
  0.3121471144679489  0.6136153922091153  0.0839603475624724
  0.1475848205984771  0.4438179382384735  0.0980884950406836
  0.3059553019224991  0.0888947845313028  0.4120088850580767
  0.2432308407438792  0.8566694690586970  0.2235005670644075
  0.6554014550228262  0.5529489520385227  0.5283792426720642
  0.7382135250455795  0.4486699117722975  0.4202562019935356
  0.8352814996707605  0.7250687361772151  0.3078441806878133
  0.3940115294692271  0.7046425548364312  0.4803641956965441
  0.2093508284955837  0.4022335503217933  0.4031161248426640
  0.3733011539833262  0.8441404438102859  0.3362443910647822
  0.5485715249031043  0.1549224642850745  0.3388013105628602
  0.8841429646374254  0.8298173349988299  0.1936376409395862
  0.0103684309749685  0.0121774228243043  0.2797872346203144
  0.1529158729240645  0.4333966470431261  0.2592602455803964
  0.4769742611681616  0.4932383135046651  0.3566290641391187
  0.8306223087043315  0.2015939870149178  0.5158268146687425
  0.8272973936532609  0.8185215240588437  0.5005702444153884
  0.9155963274664097  0.1354418585591177  0.4220160548150682
  0.5793435278459682  0.5762364033355007  0.2606571538149340
  0.7046045562983972  0.2631423138376453  0.2501757974583751
  0.5435035341836186  0.0084514516885632  0.2056169754715598
  0.9825319655417379  0.3445033972912414  0.3368670076155507
  0.6297819334758784  0.9076536036442551  0.4327006571427329
  0.0149111833765185  0.5356706258702751  0.4675955614843721
  0.1209262590922590  0.4448006769645106  0.1551717956624196
 
  0.00000000E+00  0.00000000E+00  0.00000000E+00
  0.00000000E+00  0.00000000E+00  0.00000000E+00
  0.00000000E+00  0.00000000E+00  0.00000000E+00
  0.00000000E+00  0.00000000E+00  0.00000000E+00
  0.00000000E+00  0.00000000E+00  0.00000000E+00
  0.00000000E+00  0.00000000E+00  0.00000000E+00
  0.00000000E+00  0.00000000E+00  0.00000000E+00
  0.00000000E+00  0.00000000E+00  0.00000000E+00
  0.00000000E+00  0.00000000E+00  0.00000000E+00
  0.00000000E+00  0.00000000E+00  0.00000000E+00
  0.00000000E+00  0.00000000E+00  0.00000000E+00
  0.00000000E+00  0.00000000E+00  0.00000000E+00
  0.00000000E+00  0.00000000E+00  0.00000000E+00
  0.00000000E+00  0.00000000E+00  0.00000000E+00
  0.00000000E+00  0.00000000E+00  0.00000000E+00
  0.00000000E+00  0.00000000E+00  0.00000000E+00
  0.00000000E+00  0.00000000E+00  0.00000000E+00
  0.00000000E+00  0.00000000E+00  0.00000000E+00
  0.00000000E+00  0.00000000E+00  0.00000000E+00
  0.00000000E+00  0.00000000E+00  0.00000000E+00
  0.00000000E+00  0.00000000E+00  0.00000000E+00
  0.00000000E+00  0.00000000E+00  0.00000000E+00
  0.00000000E+00  0.00000000E+00  0.00000000E+00
  0.00000000E+00  0.00000000E+00  0.00000000E+00
  0.00000000E+00  0.00000000E+00  0.00000000E+00
  0.00000000E+00  0.00000000E+00  0.00000000E+00
  0.00000000E+00  0.00000000E+00  0.00000000E+00
  0.00000000E+00  0.00000000E+00  0.00000000E+00
  0.00000000E+00  0.00000000E+00  0.00000000E+00
  0.00000000E+00  0.00000000E+00  0.00000000E+00
  0.00000000E+00  0.00000000E+00  0.00000000E+00
  0.00000000E+00  0.00000000E+00  0.00000000E+00
  0.00000000E+00  0.00000000E+00  0.00000000E+00
  0.00000000E+00  0.00000000E+00  0.00000000E+00
  0.00000000E+00  0.00000000E+00  0.00000000E+00
  0.00000000E+00  0.00000000E+00  0.00000000E+00
  0.00000000E+00  0.00000000E+00  0.00000000E+00
  0.00000000E+00  0.00000000E+00  0.00000000E+00
  0.00000000E+00  0.00000000E+00  0.00000000E+00
  0.00000000E+00  0.00000000E+00  0.00000000E+00
  0.00000000E+00  0.00000000E+00  0.00000000E+00
  0.00000000E+00  0.00000000E+00  0.00000000E+00
  0.00000000E+00  0.00000000E+00  0.00000000E+00
  0.00000000E+00  0.00000000E+00  0.00000000E+00
  0.00000000E+00  0.00000000E+00  0.00000000E+00
  0.00000000E+00  0.00000000E+00  0.00000000E+00
  0.00000000E+00  0.00000000E+00  0.00000000E+00
  0.00000000E+00  0.00000000E+00  0.00000000E+00
  0.00000000E+00  0.00000000E+00  0.00000000E+00
  0.00000000E+00  0.00000000E+00  0.00000000E+00
  0.00000000E+00  0.00000000E+00  0.00000000E+00
  0.00000000E+00  0.00000000E+00  0.00000000E+00
  0.00000000E+00  0.00000000E+00  0.00000000E+00
  0.00000000E+00  0.00000000E+00  0.00000000E+00
  0.00000000E+00  0.00000000E+00  0.00000000E+00
  0.00000000E+00  0.00000000E+00  0.00000000E+00
  0.00000000E+00  0.00000000E+00  0.00000000E+00
  0.00000000E+00  0.00000000E+00  0.00000000E+00
  0.00000000E+00  0.00000000E+00  0.00000000E+00
  0.00000000E+00  0.00000000E+00  0.00000000E+00
  0.00000000E+00  0.00000000E+00  0.00000000E+00
  0.00000000E+00  0.00000000E+00  0.00000000E+00
  0.00000000E+00  0.00000000E+00  0.00000000E+00
  0.00000000E+00  0.00000000E+00  0.00000000E+00
  0.00000000E+00  0.00000000E+00  0.00000000E+00
  0.00000000E+00  0.00000000E+00  0.00000000E+00
  0.00000000E+00  0.00000000E+00  0.00000000E+00
  0.00000000E+00  0.00000000E+00  0.00000000E+00
  0.00000000E+00  0.00000000E+00  0.00000000E+00
  0.00000000E+00  0.00000000E+00  0.00000000E+00
  0.00000000E+00  0.00000000E+00  0.00000000E+00
  0.00000000E+00  0.00000000E+00  0.00000000E+00
  0.00000000E+00  0.00000000E+00  0.00000000E+00
  0.00000000E+00  0.00000000E+00  0.00000000E+00
  0.00000000E+00  0.00000000E+00  0.00000000E+00
  0.00000000E+00  0.00000000E+00  0.00000000E+00
  0.00000000E+00  0.00000000E+00  0.00000000E+00
  0.00000000E+00  0.00000000E+00  0.00000000E+00
  0.00000000E+00  0.00000000E+00  0.00000000E+00
  0.00000000E+00  0.00000000E+00  0.00000000E+00
  0.00000000E+00  0.00000000E+00  0.00000000E+00
  0.00000000E+00  0.00000000E+00  0.00000000E+00
  0.00000000E+00  0.00000000E+00  0.00000000E+00
  0.00000000E+00  0.00000000E+00  0.00000000E+00
  0.00000000E+00  0.00000000E+00  0.00000000E+00
  0.00000000E+00  0.00000000E+00  0.00000000E+00
  0.00000000E+00  0.00000000E+00  0.00000000E+00
  0.00000000E+00  0.00000000E+00  0.00000000E+00
  0.00000000E+00  0.00000000E+00  0.00000000E+00
  0.00000000E+00  0.00000000E+00  0.00000000E+00
  0.00000000E+00  0.00000000E+00  0.00000000E+00
  0.00000000E+00  0.00000000E+00  0.00000000E+00
