 C  N Mn  H  O                          
   1.00000000000000     
     8.4011236000000000    0.0000000000000000    0.0000000000000000
     0.0000000000000000    8.4011677999999996    0.0000000000000000
     0.0000000000000000    0.0000000000000000   30.0000000000000000
   C    N    Mn   H    O 
    20     4     1    46    24
Direct
  0.5867377478764848  0.9010209939774971  0.1302299084379936
  0.4405210508286455  0.9838376292509752  0.1297507763917217
  0.7319044283979669  0.9841267145735735  0.1294717653557091
  0.8820912580235322  0.7304833250714581  0.1284382108337370
  0.8833109774117021  0.8988188186803506  0.1287340753792579
  0.0018926496457171  0.0189111825857499  0.1284511955467719
  0.9179849606507302  0.1683234653264294  0.1285475019111777
  0.2909269763745784  0.8992724705286839  0.1290495013382492
  0.1714324531931409  0.0202142340913254  0.1287093146953521
  0.2544438915020167  0.1679402990905408  0.1290147162441332
  0.1725178096745043  0.3153176276315971  0.1288168738175257
  0.2547146269194924  0.4616022154241517  0.1292136087367212
  0.4410039033424465  0.6456889265178092  0.1298840331567398
  0.2896899162614630  0.7310107549693035  0.1291898637417995
  0.1709470156581018  0.6107461291294431  0.1289020465773929
  0.7324397198756033  0.6461405071585008  0.1285585453760143
  0.9183238724685007  0.4619889378383816  0.1279065177402720
  0.0014990800262204  0.6096046242478269  0.1284577521140693
  0.5861699159217726  0.7289321880524702  0.1299897120135227
  0.0002002986837709  0.3145219786732818  0.1283029080103166
  0.7530209307610066  0.1466245849018507  0.1288834809079514
  0.4201194872599012  0.1470737337344873  0.1293438606095409
  0.4199360542702771  0.4830434435842778  0.1296805714334740
  0.7526120985260315  0.4830503894938976  0.1274247737984053
  0.5863255790257212  0.3157516264157994  0.1422390090788782
  0.1059371668368158  0.1536993399038939  0.2497942027992878
  0.1327783179624089  0.0636583932972003  0.2042414130884512
  0.5025202134391802  0.9851471987257747  0.2662989464831616
  0.6856483909875570  1.0052246167824743  0.2624882956395017
  0.4996419128311169  0.7777162012602468  0.5157833064554516
  0.6142319900992431  0.9289147817205826  0.5217090845574766
  0.0305961070814100  0.8651217659952395  0.3530286879094688
  0.8663829443530119  0.9282026704339457  0.3712583858443190
  0.2832214584691887  0.4712872681666749  0.2513597357326867
  0.4637887276964156  0.4877342781493055  0.2385882602911523
  0.3506379396240786  0.7459726793296485  0.2611485489023440
  0.2540319990482101  0.9107153495545869  0.2599166228343064
  0.8596678232593851  0.5614568568092767  0.4868362601294651
  0.7495646832201661  0.6523002933253370  0.5198362668736632
  0.8676142769021542  0.6491120603756907  0.2475277454309276
  0.9145926961295169  0.5512209944391947  0.2056985576739523
  0.0308994208545278  0.0158964985940287  0.4979430611405035
  0.9420923041267548  0.0328579146701581  0.4535227770708020
  0.5114336350736103  0.1893275509946689  0.3982668246192973
  0.3971955683367221  0.2566331350352614  0.4356386371121913
  0.1434369661321277  0.3065282896528992  0.4637199559373006
  0.2398067492016600  0.4700731871615781  0.4708812618825867
  0.2644819317426216  0.8103628556101397  0.3838275940282121
  0.2767711976952761  0.8033312623794288  0.3303876161661162
  0.2230061196882921  0.7045262603057724  0.5197621478331174
  0.3035197892647522  0.7425991132919474  0.4747366137080671
  0.9678460437002242  0.7411767924719275  0.5325610123424813
  0.0227918798814387  0.8555087932450537  0.5710600987792903
  0.2472946050298494  0.5444126037628542  0.3525067657715503
  0.2258568401270923  0.3966962927056981  0.3830656310550679
  0.8434286014689119  0.7710111528096516  0.4303919075443009
  0.7108143627488512  0.8698366308762115  0.4537337812125327
  0.6072843127737222  0.1707431916974023  0.4792010686782466
  0.7141624963730687  0.2415304231267109  0.5171418438506967
  0.1964653330824131  0.9630570877275004  0.4457229071896158
  0.3757372036870458  0.9888163495718542  0.4346734753245129
  0.6803817385563364  0.3863362255849900  0.3472376420068538
  0.7035591168947721  0.5675834883857245  0.3375110027004604
  0.4351178659674369  0.2998903303256303  0.3356181336759169
  0.5561695243984986  0.1744410181706492  0.3128115932134339
  0.9376201862485346  0.9159969079391675  0.2482363828496106
  0.8751577461913245  0.8709312629825642  0.2949843729228649
  0.0153925862255334  0.5233820073936400  0.4245884840601909
  0.8484623545044531  0.5221359548074137  0.3999786673293013
  0.1325157465193333  0.3610074165521884  0.3023015986742411
  0.0196801865827571  0.4129625813951143  0.2620678854299588
  0.1085004730502042  0.0456676716740751  0.2355919815380439
  0.5865554387932914  0.0678564970218635  0.2647734995812904
  0.6101657473948247  0.8152168176461098  0.5139351526864195
  0.9377940021523989  0.9323638524757993  0.3454371780863699
  0.3653609675673843  0.5481155792894844  0.2413285705010999
  0.3404762739703223  0.8524456657940973  0.2752821647426810
  0.8449327157426486  0.5833015459868771  0.5189513462811328
  0.8760653468772872  0.5378670114680225  0.2360732692441426
  0.0363599904651259  0.0744455256291954  0.4695387250362169
  0.4802284888673586  0.1761945449499432  0.4299937950627904
  0.2119919183859270  0.3854512221467531  0.4490994742428151
  0.2235821102085605  0.7555603625844278  0.3567924283467302
  0.3035736040473302  0.6618997817979915  0.4990982208857476
  0.0432343331718842  0.8306443071441156  0.5399385508577534
  0.2492022125135207  0.4257650221273684  0.3521234265731965
  0.7944562130124713  0.8782347637507971  0.4309995324420965
  0.6547510128661890  0.1469933550550963  0.5086072088947580
  0.2938074748367124  0.9037851074580018  0.4364299385367701
  0.7560937745099878  0.4767582944611325  0.3511861244822879
  0.5347994023540481  0.2403072662888893  0.3401712462236863
  0.8521918522772082  0.8531524892666381  0.2624631764797190
  0.9066641942426090  0.5639003302927452  0.4266849199700608
  0.1145546961200928  0.3472420118013980  0.2699256198297321
  0.5928440477473489  0.3180493451575008  0.1945877815625092
 
  0.00000000E+00  0.00000000E+00  0.00000000E+00
  0.00000000E+00  0.00000000E+00  0.00000000E+00
  0.00000000E+00  0.00000000E+00  0.00000000E+00
  0.00000000E+00  0.00000000E+00  0.00000000E+00
  0.00000000E+00  0.00000000E+00  0.00000000E+00
  0.00000000E+00  0.00000000E+00  0.00000000E+00
  0.00000000E+00  0.00000000E+00  0.00000000E+00
  0.00000000E+00  0.00000000E+00  0.00000000E+00
  0.00000000E+00  0.00000000E+00  0.00000000E+00
  0.00000000E+00  0.00000000E+00  0.00000000E+00
  0.00000000E+00  0.00000000E+00  0.00000000E+00
  0.00000000E+00  0.00000000E+00  0.00000000E+00
  0.00000000E+00  0.00000000E+00  0.00000000E+00
  0.00000000E+00  0.00000000E+00  0.00000000E+00
  0.00000000E+00  0.00000000E+00  0.00000000E+00
  0.00000000E+00  0.00000000E+00  0.00000000E+00
  0.00000000E+00  0.00000000E+00  0.00000000E+00
  0.00000000E+00  0.00000000E+00  0.00000000E+00
  0.00000000E+00  0.00000000E+00  0.00000000E+00
  0.00000000E+00  0.00000000E+00  0.00000000E+00
  0.00000000E+00  0.00000000E+00  0.00000000E+00
  0.00000000E+00  0.00000000E+00  0.00000000E+00
  0.00000000E+00  0.00000000E+00  0.00000000E+00
  0.00000000E+00  0.00000000E+00  0.00000000E+00
  0.00000000E+00  0.00000000E+00  0.00000000E+00
  0.00000000E+00  0.00000000E+00  0.00000000E+00
  0.00000000E+00  0.00000000E+00  0.00000000E+00
  0.00000000E+00  0.00000000E+00  0.00000000E+00
  0.00000000E+00  0.00000000E+00  0.00000000E+00
  0.00000000E+00  0.00000000E+00  0.00000000E+00
  0.00000000E+00  0.00000000E+00  0.00000000E+00
  0.00000000E+00  0.00000000E+00  0.00000000E+00
  0.00000000E+00  0.00000000E+00  0.00000000E+00
  0.00000000E+00  0.00000000E+00  0.00000000E+00
  0.00000000E+00  0.00000000E+00  0.00000000E+00
  0.00000000E+00  0.00000000E+00  0.00000000E+00
  0.00000000E+00  0.00000000E+00  0.00000000E+00
  0.00000000E+00  0.00000000E+00  0.00000000E+00
  0.00000000E+00  0.00000000E+00  0.00000000E+00
  0.00000000E+00  0.00000000E+00  0.00000000E+00
  0.00000000E+00  0.00000000E+00  0.00000000E+00
  0.00000000E+00  0.00000000E+00  0.00000000E+00
  0.00000000E+00  0.00000000E+00  0.00000000E+00
  0.00000000E+00  0.00000000E+00  0.00000000E+00
  0.00000000E+00  0.00000000E+00  0.00000000E+00
  0.00000000E+00  0.00000000E+00  0.00000000E+00
  0.00000000E+00  0.00000000E+00  0.00000000E+00
  0.00000000E+00  0.00000000E+00  0.00000000E+00
  0.00000000E+00  0.00000000E+00  0.00000000E+00
  0.00000000E+00  0.00000000E+00  0.00000000E+00
  0.00000000E+00  0.00000000E+00  0.00000000E+00
  0.00000000E+00  0.00000000E+00  0.00000000E+00
  0.00000000E+00  0.00000000E+00  0.00000000E+00
  0.00000000E+00  0.00000000E+00  0.00000000E+00
  0.00000000E+00  0.00000000E+00  0.00000000E+00
  0.00000000E+00  0.00000000E+00  0.00000000E+00
  0.00000000E+00  0.00000000E+00  0.00000000E+00
  0.00000000E+00  0.00000000E+00  0.00000000E+00
  0.00000000E+00  0.00000000E+00  0.00000000E+00
  0.00000000E+00  0.00000000E+00  0.00000000E+00
  0.00000000E+00  0.00000000E+00  0.00000000E+00
  0.00000000E+00  0.00000000E+00  0.00000000E+00
  0.00000000E+00  0.00000000E+00  0.00000000E+00
  0.00000000E+00  0.00000000E+00  0.00000000E+00
  0.00000000E+00  0.00000000E+00  0.00000000E+00
  0.00000000E+00  0.00000000E+00  0.00000000E+00
  0.00000000E+00  0.00000000E+00  0.00000000E+00
  0.00000000E+00  0.00000000E+00  0.00000000E+00
  0.00000000E+00  0.00000000E+00  0.00000000E+00
  0.00000000E+00  0.00000000E+00  0.00000000E+00
  0.00000000E+00  0.00000000E+00  0.00000000E+00
  0.00000000E+00  0.00000000E+00  0.00000000E+00
  0.00000000E+00  0.00000000E+00  0.00000000E+00
  0.00000000E+00  0.00000000E+00  0.00000000E+00
  0.00000000E+00  0.00000000E+00  0.00000000E+00
  0.00000000E+00  0.00000000E+00  0.00000000E+00
  0.00000000E+00  0.00000000E+00  0.00000000E+00
  0.00000000E+00  0.00000000E+00  0.00000000E+00
  0.00000000E+00  0.00000000E+00  0.00000000E+00
  0.00000000E+00  0.00000000E+00  0.00000000E+00
  0.00000000E+00  0.00000000E+00  0.00000000E+00
  0.00000000E+00  0.00000000E+00  0.00000000E+00
  0.00000000E+00  0.00000000E+00  0.00000000E+00
  0.00000000E+00  0.00000000E+00  0.00000000E+00
  0.00000000E+00  0.00000000E+00  0.00000000E+00
  0.00000000E+00  0.00000000E+00  0.00000000E+00
  0.00000000E+00  0.00000000E+00  0.00000000E+00
  0.00000000E+00  0.00000000E+00  0.00000000E+00
  0.00000000E+00  0.00000000E+00  0.00000000E+00
  0.00000000E+00  0.00000000E+00  0.00000000E+00
  0.00000000E+00  0.00000000E+00  0.00000000E+00
  0.00000000E+00  0.00000000E+00  0.00000000E+00
  0.00000000E+00  0.00000000E+00  0.00000000E+00
  0.00000000E+00  0.00000000E+00  0.00000000E+00
  0.00000000E+00  0.00000000E+00  0.00000000E+00
