 C  N Mn  H  O                          
   1.00000000000000     
     8.4011236000000000    0.0000000000000000    0.0000000000000000
     0.0000000000000000    8.4011677999999996    0.0000000000000000
     0.0000000000000000    0.0000000000000000   30.0000000000000000
   C    N    Mn   H    O 
    20     4     1    47    25
Direct
  0.5880714403764474  0.9098948354438029  0.1299328619713368
  0.4422033808610282  0.9925679878368935  0.1308884490989007
  0.7343141343000286  0.9921537126739672  0.1286707770093110
  0.8843430090088589  0.7415472376161530  0.1276850731854714
  0.8846083139785995  0.9073322055744912  0.1286071529935073
  0.0043846020473696  0.0293190499853451  0.1289025454589742
  0.9213478579996448  0.1764524156904250  0.1282375673739040
  0.2919477475960163  0.9077393583734116  0.1303453300953295
  0.1720683325686983  0.0296144351838768  0.1299877960578948
  0.2550600235834175  0.1771167621521832  0.1304707305894936
  0.1734476131689537  0.3243680421149985  0.1293604402908040
  0.2543460075373697  0.4721708844810750  0.1295456432337658
  0.4416110263480026  0.6569097739674731  0.1300292573710739
  0.2916153107605330  0.7415509468411928  0.1301272417573099
  0.1715763812537820  0.6196623131882570  0.1295979931431009
  0.7339292340184187  0.6568451403583300  0.1262617340546135
  0.9213707813408892  0.4721391065282318  0.1264070227565710
  0.0041259497331742  0.6193149788764143  0.1282172326824537
  0.5879214132347939  0.7389798011370968  0.1289830083703548
  0.0021428493334906  0.3241451279290450  0.1278315743093060
  0.7559444110922805  0.1535500607234019  0.1274990934663998
  0.4207368680210537  0.1547583318617018  0.1308768965465805
  0.4198084929748465  0.4946461906933461  0.1295957075254907
  0.7561906624512964  0.4953223011198751  0.1234362038374303
  0.5910847477814379  0.3262904733856112  0.1376398264624204
  0.1062690585442142  0.1671830937605701  0.2502078360329754
  0.1266999573978128  0.0781907251755640  0.2040045479288821
  0.4857051316857985  0.9448594127101911  0.2836612519870222
  0.6704731915685912  0.9749126271517873  0.2763482747158413
  0.4967063671068654  0.7796514310167949  0.5108497119467370
  0.6076998790468242  0.9320312419529273  0.5202561076855972
  0.0267003383700949  0.8495402616337663  0.3565985868941844
  0.8644883246446494  0.9224434935795131  0.3731579854618664
  0.2558797827439894  0.4637814552349354  0.2513409269719858
  0.3332139790505690  0.5391426970366376  0.2079646896588495
  0.3178283947938836  0.7344370556612662  0.2598674169100950
  0.2346737322002480  0.9074165051843845  0.2595940657179577
  0.8531044393748607  0.5610654116143678  0.4898880172582140
  0.7440438630795608  0.6588338457779761  0.5214353163071053
  0.8854434205469984  0.6767532794154518  0.2484487076886279
  0.8967043461595122  0.5580898882215829  0.2078025581017931
  0.0432982550021245  0.0040974718408266  0.5013347436071220
  0.9476372645708635  0.0204627117882827  0.4578051922969975
  0.5242852775083729  0.1981439930305282  0.4026613795412079
  0.4013859423774105  0.2522549445936529  0.4391953734742677
  0.1451951708391453  0.2947700084067505  0.4662069361870993
  0.2393853457696369  0.4618207731322825  0.4704094607878191
  0.2617357212402701  0.8005783418466221  0.3846074078432383
  0.2586143935312067  0.7846187283107371  0.3313447150466147
  0.2235700113240827  0.7008497808280465  0.5156122613734172
  0.3026123316439275  0.7377013209508900  0.4701751470700106
  0.9714604774452129  0.7303004949273785  0.5351349748431729
  0.0516302307522352  0.8308586574845358  0.5735236490988138
  0.2440019851237239  0.5328611571663848  0.3562350884457630
  0.2192434329158222  0.3792664570646088  0.3843513859601640
  0.8526688105044546  0.7695882856739354  0.4334335957745025
  0.7151954955061163  0.8661001984709945  0.4552269223897044
  0.6003441055395007  0.1743397563681175  0.4853216611598707
  0.7168309704620415  0.2285736735801407  0.5231332379777515
  0.2009551326913261  0.9654548550538390  0.4449643122511109
  0.3804153245957443  0.9898789778284132  0.4330652462535519
  0.6935571600373479  0.4006588576530469  0.3473190973708773
  0.7402719150124183  0.5737562346702496  0.3323006978691556
  0.4412821611766650  0.3089025452653044  0.3427940888166847
  0.5566241020253707  0.1679953236722482  0.3249361230490818
  0.9355904916834510  0.9405819160933971  0.2495359640567363
  0.8847024346498786  0.8817637499713047  0.2966889780486464
  0.0131563884672533  0.5124024456258441  0.4287191855177932
  0.8530371852124956  0.5264390398895152  0.4013116810980857
  0.1315357727660661  0.3662216892526844  0.3050390942306845
  0.0183207466720811  0.4283178543403873  0.2650653731891918
  0.4854705032294152  0.3726789610083395  0.2377184755079368
  0.1090874751933736  0.0599671739603442  0.2357290394702554
  0.5742842867736596  0.0173576474531129  0.2908370804375991
  0.6064660774466660  0.8198783956892098  0.5103943808175802
  0.9400278016736953  0.9232087736842072  0.3482069527257008
  0.3523505259291757  0.5241587315439727  0.2397503445072355
  0.3078749766059368  0.8360068461177055  0.2759847783779998
  0.8375812847929734  0.5871492070419708  0.5217099113244104
  0.8969395763419046  0.5618080793737386  0.2401619425564842
  0.0407990104018663  0.0667611263196695  0.4736067335029636
  0.4877879216798832  0.1753182737712844  0.4337061216246696
  0.2091012855447833  0.3736315561943583  0.4499916902540733
  0.2171719913305163  0.7377058403282425  0.3594076462038712
  0.3031621211972808  0.6575346668482220  0.4945873009338261
  0.0548423928427412  0.8141778422807517  0.5414757043623982
  0.2467826237976440  0.4140216143589322  0.3541178985251194
  0.8040375280223028  0.8770014242573744  0.4339907559592340
  0.6329483324699087  0.1524621877564258  0.5164373189219627
  0.2960330132302612  0.9068745411503191  0.4338567327864244
  0.7770297658705414  0.4846150037129520  0.3502033819387252
  0.5458780407152993  0.2576986787833797  0.3470466734589676
  0.8576850933268871  0.8694477293863410  0.2640729480353061
  0.9069438177435953  0.5598200093161503  0.4296325184978814
  0.1108504112516299  0.3576066349759491  0.2724863154275503
  0.6514758939083424  0.3748997979130176  0.1959987190451017
  0.5642443014318999  0.2879793698158357  0.2274322739373526
 
  0.00000000E+00  0.00000000E+00  0.00000000E+00
  0.00000000E+00  0.00000000E+00  0.00000000E+00
  0.00000000E+00  0.00000000E+00  0.00000000E+00
  0.00000000E+00  0.00000000E+00  0.00000000E+00
  0.00000000E+00  0.00000000E+00  0.00000000E+00
  0.00000000E+00  0.00000000E+00  0.00000000E+00
  0.00000000E+00  0.00000000E+00  0.00000000E+00
  0.00000000E+00  0.00000000E+00  0.00000000E+00
  0.00000000E+00  0.00000000E+00  0.00000000E+00
  0.00000000E+00  0.00000000E+00  0.00000000E+00
  0.00000000E+00  0.00000000E+00  0.00000000E+00
  0.00000000E+00  0.00000000E+00  0.00000000E+00
  0.00000000E+00  0.00000000E+00  0.00000000E+00
  0.00000000E+00  0.00000000E+00  0.00000000E+00
  0.00000000E+00  0.00000000E+00  0.00000000E+00
  0.00000000E+00  0.00000000E+00  0.00000000E+00
  0.00000000E+00  0.00000000E+00  0.00000000E+00
  0.00000000E+00  0.00000000E+00  0.00000000E+00
  0.00000000E+00  0.00000000E+00  0.00000000E+00
  0.00000000E+00  0.00000000E+00  0.00000000E+00
  0.00000000E+00  0.00000000E+00  0.00000000E+00
  0.00000000E+00  0.00000000E+00  0.00000000E+00
  0.00000000E+00  0.00000000E+00  0.00000000E+00
  0.00000000E+00  0.00000000E+00  0.00000000E+00
  0.00000000E+00  0.00000000E+00  0.00000000E+00
  0.00000000E+00  0.00000000E+00  0.00000000E+00
  0.00000000E+00  0.00000000E+00  0.00000000E+00
  0.00000000E+00  0.00000000E+00  0.00000000E+00
  0.00000000E+00  0.00000000E+00  0.00000000E+00
  0.00000000E+00  0.00000000E+00  0.00000000E+00
  0.00000000E+00  0.00000000E+00  0.00000000E+00
  0.00000000E+00  0.00000000E+00  0.00000000E+00
  0.00000000E+00  0.00000000E+00  0.00000000E+00
  0.00000000E+00  0.00000000E+00  0.00000000E+00
  0.00000000E+00  0.00000000E+00  0.00000000E+00
  0.00000000E+00  0.00000000E+00  0.00000000E+00
  0.00000000E+00  0.00000000E+00  0.00000000E+00
  0.00000000E+00  0.00000000E+00  0.00000000E+00
  0.00000000E+00  0.00000000E+00  0.00000000E+00
  0.00000000E+00  0.00000000E+00  0.00000000E+00
  0.00000000E+00  0.00000000E+00  0.00000000E+00
  0.00000000E+00  0.00000000E+00  0.00000000E+00
  0.00000000E+00  0.00000000E+00  0.00000000E+00
  0.00000000E+00  0.00000000E+00  0.00000000E+00
  0.00000000E+00  0.00000000E+00  0.00000000E+00
  0.00000000E+00  0.00000000E+00  0.00000000E+00
  0.00000000E+00  0.00000000E+00  0.00000000E+00
  0.00000000E+00  0.00000000E+00  0.00000000E+00
  0.00000000E+00  0.00000000E+00  0.00000000E+00
  0.00000000E+00  0.00000000E+00  0.00000000E+00
  0.00000000E+00  0.00000000E+00  0.00000000E+00
  0.00000000E+00  0.00000000E+00  0.00000000E+00
  0.00000000E+00  0.00000000E+00  0.00000000E+00
  0.00000000E+00  0.00000000E+00  0.00000000E+00
  0.00000000E+00  0.00000000E+00  0.00000000E+00
  0.00000000E+00  0.00000000E+00  0.00000000E+00
  0.00000000E+00  0.00000000E+00  0.00000000E+00
  0.00000000E+00  0.00000000E+00  0.00000000E+00
  0.00000000E+00  0.00000000E+00  0.00000000E+00
  0.00000000E+00  0.00000000E+00  0.00000000E+00
  0.00000000E+00  0.00000000E+00  0.00000000E+00
  0.00000000E+00  0.00000000E+00  0.00000000E+00
  0.00000000E+00  0.00000000E+00  0.00000000E+00
  0.00000000E+00  0.00000000E+00  0.00000000E+00
  0.00000000E+00  0.00000000E+00  0.00000000E+00
  0.00000000E+00  0.00000000E+00  0.00000000E+00
  0.00000000E+00  0.00000000E+00  0.00000000E+00
  0.00000000E+00  0.00000000E+00  0.00000000E+00
  0.00000000E+00  0.00000000E+00  0.00000000E+00
  0.00000000E+00  0.00000000E+00  0.00000000E+00
  0.00000000E+00  0.00000000E+00  0.00000000E+00
  0.00000000E+00  0.00000000E+00  0.00000000E+00
  0.00000000E+00  0.00000000E+00  0.00000000E+00
  0.00000000E+00  0.00000000E+00  0.00000000E+00
  0.00000000E+00  0.00000000E+00  0.00000000E+00
  0.00000000E+00  0.00000000E+00  0.00000000E+00
  0.00000000E+00  0.00000000E+00  0.00000000E+00
  0.00000000E+00  0.00000000E+00  0.00000000E+00
  0.00000000E+00  0.00000000E+00  0.00000000E+00
  0.00000000E+00  0.00000000E+00  0.00000000E+00
  0.00000000E+00  0.00000000E+00  0.00000000E+00
  0.00000000E+00  0.00000000E+00  0.00000000E+00
  0.00000000E+00  0.00000000E+00  0.00000000E+00
  0.00000000E+00  0.00000000E+00  0.00000000E+00
  0.00000000E+00  0.00000000E+00  0.00000000E+00
  0.00000000E+00  0.00000000E+00  0.00000000E+00
  0.00000000E+00  0.00000000E+00  0.00000000E+00
  0.00000000E+00  0.00000000E+00  0.00000000E+00
  0.00000000E+00  0.00000000E+00  0.00000000E+00
  0.00000000E+00  0.00000000E+00  0.00000000E+00
  0.00000000E+00  0.00000000E+00  0.00000000E+00
  0.00000000E+00  0.00000000E+00  0.00000000E+00
  0.00000000E+00  0.00000000E+00  0.00000000E+00
  0.00000000E+00  0.00000000E+00  0.00000000E+00
  0.00000000E+00  0.00000000E+00  0.00000000E+00
  0.00000000E+00  0.00000000E+00  0.00000000E+00
  0.00000000E+00  0.00000000E+00  0.00000000E+00
