 C  N Mn  H  O                          
   1.00000000000000     
     8.4011236000000000    0.0000000000000000    0.0000000000000000
     0.0000000000000000    8.4011677999999996    0.0000000000000000
     0.0000000000000000    0.0000000000000000   30.0000000000000000
   C    N    Mn   H    O 
    20     4     1    47    24
Direct
  0.5877967072741651  0.9041880047088291  0.1320164659371454
  0.4413220963885319  0.9866749755003504  0.1316028177869135
  0.7335826569751805  0.9868586699413326  0.1315763093482366
  0.8837858570543445  0.7357326147034113  0.1294144009837384
  0.8846119297664067  0.9015702294774421  0.1301601212170590
  0.0040377812251163  0.0230162937901399  0.1297321842701741
  0.9203684402709256  0.1712958883173555  0.1301878597103078
  0.2916312502875967  0.9019213494147439  0.1306538948210333
  0.1715268384564768  0.0239527653561393  0.1300426439748247
  0.2545661808424928  0.1712101700900930  0.1303213348535587
  0.1732858010518052  0.3190174801865743  0.1295344852601840
  0.2546171710579764  0.4662889201513608  0.1297163921164348
  0.4415362109175802  0.6505930696577611  0.1309275372951339
  0.2905914118121123  0.7360564894440862  0.1303099253680658
  0.1711653579659920  0.6146094807601901  0.1295489921977275
  0.7341100541062733  0.6510157950946323  0.1288414957797531
  0.9208453563804800  0.4664933722674937  0.1276763948960592
  0.0039764419367458  0.6137590668929204  0.1289979576783249
  0.5874300180680933  0.7329953783245027  0.1310083105075111
  0.0017930549193915  0.3184502207953812  0.1288894263083927
  0.7558604502356525  0.1483941221424339  0.1313646861472325
  0.4201897029375243  0.1491127339354659  0.1307370124406527
  0.4189046832907473  0.4892126694230148  0.1300838234756519
  0.7557753735087807  0.4892497116802463  0.1258140089746637
  0.5880451124731403  0.3209322898428746  0.1409825843970023
  0.1034403214702280  0.1473469861502707  0.2513567913265241
  0.1283438872626729  0.0627777782985576  0.2050115575302920
  0.5024864313396887  0.9766362403962604  0.2692352325627158
  0.6855788521660378  0.9964073704162785  0.2651062626087031
  0.4988177164883623  0.7778963637094669  0.5147401301600701
  0.6131226610580038  0.9290819953761723  0.5212920630698056
  0.0304425644715050  0.8621803125508581  0.3527003087065552
  0.8658775527923152  0.9257680340362178  0.3705649806336022
  0.2818925829518404  0.4682261955342854  0.2518037592405495
  0.4501266251202393  0.4799627819860313  0.2288064476923693
  0.3500534574527092  0.7403036423611508  0.2603871386412421
  0.2535787874533980  0.9055406392998793  0.2595211587542319
  0.8581251376936959  0.5613622932506200  0.4869543464526657
  0.7484893781369761  0.6534252871207180  0.5197485389080194
  0.8579839856760747  0.6430807492353064  0.2449095796079303
  0.9389466573972348  0.5556780556221430  0.2051430308207196
  0.0330233324918126  0.0139812877664385  0.4983206086985516
  0.9430280860584269  0.0308554655620919  0.4540700785066527
  0.5129879529276193  0.1902862393157271  0.3981097198344652
  0.3984924378768788  0.2558649476893441  0.4356103074084007
  0.1437681838956927  0.3048984913967729  0.4639019855889832
  0.2392789094938232  0.4692789945292298  0.4706215582667149
  0.7051535917134837  0.4200756453306879  0.2108123938970172
  0.2641082021476254  0.8097715885456154  0.3832941347412264
  0.2749043943172736  0.7991051169982646  0.3297476016681786
  0.2229892929296503  0.7052557958038189  0.5191078146639008
  0.3028889099243068  0.7429726454997304  0.4739178690812635
  0.9677477920645767  0.7402137800636290  0.5327321269081101
  0.0244055025736198  0.8536662285264698  0.5712876839080976
  0.2457265328833952  0.5439184805274545  0.3528770979456017
  0.2250105864717060  0.3953599018757514  0.3832473519717194
  0.8450254245739452  0.7709595304611723  0.4304868190788521
  0.7119074247378447  0.8697846983702966  0.4535643436533557
  0.6073403020158974  0.1713597606775293  0.4795148933997443
  0.7149321911727718  0.2415049182487772  0.5173957426495978
  0.1971794332153911  0.9637233785259693  0.4453300401308971
  0.3764129288955534  0.9892393212823452  0.4340226599767804
  0.6819924977695433  0.3892351317105229  0.3464335711977974
  0.6983655996301543  0.5719193542871879  0.3382467952641179
  0.4379653229163846  0.3011920900704573  0.3355306011607491
  0.5583136875613689  0.1720527802632271  0.3140792114366713
  0.9368586421932902  0.9051840395237495  0.2480038265523519
  0.8764280220690353  0.8583485328509102  0.2948144403322575
  0.0139613806848439  0.5208572694612160  0.4247498270024683
  0.8484879089478348  0.5226856636864848  0.3994149062009473
  0.1335699387576242  0.3595026939570473  0.3039462007338872
  0.0142352545687649  0.4046253513202909  0.2647810706629936
  0.1059619209061736  0.0410629679104836  0.2363057929198500
  0.5870832434619195  0.0587663008115842  0.2682162509623807
  0.6092674613201751  0.8158109224637883  0.5130248868254229
  0.9366709928339856  0.9274176670589989  0.3445959162725038
  0.3635769247192561  0.5442209264547077  0.2416431573409910
  0.3383601644622773  0.8457900344416984  0.2751241632589255
  0.8436238336706862  0.5840436361394862  0.5190216014936955
  0.8722615934012592  0.5348168154867984  0.2311448725524134
  0.0371952474374198  0.0732443966966888  0.4700154853454753
  0.4817975534418517  0.1758732030033172  0.4298637752203186
  0.2110265867214521  0.3842748508231494  0.4490117503556886
  0.6096255510914046  0.3594694411497301  0.2004684470557822
  0.2222466041003126  0.7535590637085052  0.3566107565193421
  0.3031524848942561  0.6624725393668734  0.4983248536027358
  0.0439274778402571  0.8290653214084895  0.5401016773703317
  0.2482518033163274  0.4251721389814411  0.3523567116475289
  0.7965009880470881  0.8783606993527040  0.4310851018499916
  0.6526987731049380  0.1483814115987456  0.5092313116844005
  0.2940916941454964  0.9044950353854143  0.4356893192817121
  0.7570598571736042  0.4807989484410036  0.3496398433927403
  0.5373036706076537  0.2419725778949445  0.3407871633344661
  0.8536217879064383  0.8395994546035949  0.2622959252703389
  0.9054777140671169  0.5623042122553868  0.4265554204629640
  0.1102271155855510  0.3417899075835785  0.2719074623339104
 
  0.00000000E+00  0.00000000E+00  0.00000000E+00
  0.00000000E+00  0.00000000E+00  0.00000000E+00
  0.00000000E+00  0.00000000E+00  0.00000000E+00
  0.00000000E+00  0.00000000E+00  0.00000000E+00
  0.00000000E+00  0.00000000E+00  0.00000000E+00
  0.00000000E+00  0.00000000E+00  0.00000000E+00
  0.00000000E+00  0.00000000E+00  0.00000000E+00
  0.00000000E+00  0.00000000E+00  0.00000000E+00
  0.00000000E+00  0.00000000E+00  0.00000000E+00
  0.00000000E+00  0.00000000E+00  0.00000000E+00
  0.00000000E+00  0.00000000E+00  0.00000000E+00
  0.00000000E+00  0.00000000E+00  0.00000000E+00
  0.00000000E+00  0.00000000E+00  0.00000000E+00
  0.00000000E+00  0.00000000E+00  0.00000000E+00
  0.00000000E+00  0.00000000E+00  0.00000000E+00
  0.00000000E+00  0.00000000E+00  0.00000000E+00
  0.00000000E+00  0.00000000E+00  0.00000000E+00
  0.00000000E+00  0.00000000E+00  0.00000000E+00
  0.00000000E+00  0.00000000E+00  0.00000000E+00
  0.00000000E+00  0.00000000E+00  0.00000000E+00
  0.00000000E+00  0.00000000E+00  0.00000000E+00
  0.00000000E+00  0.00000000E+00  0.00000000E+00
  0.00000000E+00  0.00000000E+00  0.00000000E+00
  0.00000000E+00  0.00000000E+00  0.00000000E+00
  0.00000000E+00  0.00000000E+00  0.00000000E+00
  0.00000000E+00  0.00000000E+00  0.00000000E+00
  0.00000000E+00  0.00000000E+00  0.00000000E+00
  0.00000000E+00  0.00000000E+00  0.00000000E+00
  0.00000000E+00  0.00000000E+00  0.00000000E+00
  0.00000000E+00  0.00000000E+00  0.00000000E+00
  0.00000000E+00  0.00000000E+00  0.00000000E+00
  0.00000000E+00  0.00000000E+00  0.00000000E+00
  0.00000000E+00  0.00000000E+00  0.00000000E+00
  0.00000000E+00  0.00000000E+00  0.00000000E+00
  0.00000000E+00  0.00000000E+00  0.00000000E+00
  0.00000000E+00  0.00000000E+00  0.00000000E+00
  0.00000000E+00  0.00000000E+00  0.00000000E+00
  0.00000000E+00  0.00000000E+00  0.00000000E+00
  0.00000000E+00  0.00000000E+00  0.00000000E+00
  0.00000000E+00  0.00000000E+00  0.00000000E+00
  0.00000000E+00  0.00000000E+00  0.00000000E+00
  0.00000000E+00  0.00000000E+00  0.00000000E+00
  0.00000000E+00  0.00000000E+00  0.00000000E+00
  0.00000000E+00  0.00000000E+00  0.00000000E+00
  0.00000000E+00  0.00000000E+00  0.00000000E+00
  0.00000000E+00  0.00000000E+00  0.00000000E+00
  0.00000000E+00  0.00000000E+00  0.00000000E+00
  0.00000000E+00  0.00000000E+00  0.00000000E+00
  0.00000000E+00  0.00000000E+00  0.00000000E+00
  0.00000000E+00  0.00000000E+00  0.00000000E+00
  0.00000000E+00  0.00000000E+00  0.00000000E+00
  0.00000000E+00  0.00000000E+00  0.00000000E+00
  0.00000000E+00  0.00000000E+00  0.00000000E+00
  0.00000000E+00  0.00000000E+00  0.00000000E+00
  0.00000000E+00  0.00000000E+00  0.00000000E+00
  0.00000000E+00  0.00000000E+00  0.00000000E+00
  0.00000000E+00  0.00000000E+00  0.00000000E+00
  0.00000000E+00  0.00000000E+00  0.00000000E+00
  0.00000000E+00  0.00000000E+00  0.00000000E+00
  0.00000000E+00  0.00000000E+00  0.00000000E+00
  0.00000000E+00  0.00000000E+00  0.00000000E+00
  0.00000000E+00  0.00000000E+00  0.00000000E+00
  0.00000000E+00  0.00000000E+00  0.00000000E+00
  0.00000000E+00  0.00000000E+00  0.00000000E+00
  0.00000000E+00  0.00000000E+00  0.00000000E+00
  0.00000000E+00  0.00000000E+00  0.00000000E+00
  0.00000000E+00  0.00000000E+00  0.00000000E+00
  0.00000000E+00  0.00000000E+00  0.00000000E+00
  0.00000000E+00  0.00000000E+00  0.00000000E+00
  0.00000000E+00  0.00000000E+00  0.00000000E+00
  0.00000000E+00  0.00000000E+00  0.00000000E+00
  0.00000000E+00  0.00000000E+00  0.00000000E+00
  0.00000000E+00  0.00000000E+00  0.00000000E+00
  0.00000000E+00  0.00000000E+00  0.00000000E+00
  0.00000000E+00  0.00000000E+00  0.00000000E+00
  0.00000000E+00  0.00000000E+00  0.00000000E+00
  0.00000000E+00  0.00000000E+00  0.00000000E+00
  0.00000000E+00  0.00000000E+00  0.00000000E+00
  0.00000000E+00  0.00000000E+00  0.00000000E+00
  0.00000000E+00  0.00000000E+00  0.00000000E+00
  0.00000000E+00  0.00000000E+00  0.00000000E+00
  0.00000000E+00  0.00000000E+00  0.00000000E+00
  0.00000000E+00  0.00000000E+00  0.00000000E+00
  0.00000000E+00  0.00000000E+00  0.00000000E+00
  0.00000000E+00  0.00000000E+00  0.00000000E+00
  0.00000000E+00  0.00000000E+00  0.00000000E+00
  0.00000000E+00  0.00000000E+00  0.00000000E+00
  0.00000000E+00  0.00000000E+00  0.00000000E+00
  0.00000000E+00  0.00000000E+00  0.00000000E+00
  0.00000000E+00  0.00000000E+00  0.00000000E+00
  0.00000000E+00  0.00000000E+00  0.00000000E+00
  0.00000000E+00  0.00000000E+00  0.00000000E+00
  0.00000000E+00  0.00000000E+00  0.00000000E+00
  0.00000000E+00  0.00000000E+00  0.00000000E+00
  0.00000000E+00  0.00000000E+00  0.00000000E+00
  0.00000000E+00  0.00000000E+00  0.00000000E+00
