 C  N Cr  H  O                          
   1.00000000000000     
     8.4262443000000005    0.0000000000000000    0.0000000000000000
     0.0000000000000000    8.4262885000000001    0.0000000000000000
     0.0000000000000000    0.0000000000000000   30.0000000000000000
   C    N    Cr   H    O 
    20     4     1    48    24
Direct
  0.4959687819530919  0.0842873689887490  0.0999501574800870
  0.3490752517931131  0.1657653118174892  0.1001730473587063
  0.6428275182339439  0.1658828374755204  0.1002000264787911
  0.7926885997981302  0.9166743916391615  0.0995986168717694
  0.7926295187342584  0.0812754595514771  0.0997107793048333
  0.9127432723888893  0.2034748910250886  0.1007977717973655
  0.8298563495314232  0.3506027939615219  0.1016888388748540
  0.1990404178450756  0.0810575002326435  0.0995976757901688
  0.0789019051251680  0.2034883302015937  0.1009666191404493
  0.1618486652498819  0.3504871431296572  0.1018422409136522
  0.0816348152776823  0.4990002024661112  0.1018365807483864
  0.1617500399649441  0.6475369100085405  0.1007766354477562
  0.3489525982697150  0.8319861913515196  0.0993604415999131
  0.1989040866245397  0.9166889971941109  0.0991807656213366
  0.0788761447800963  0.7943913686767464  0.1001542460257528
  0.6426821815418458  0.8319759226885570  0.0999101287634580
  0.8300358455099726  0.6473418410361156  0.1018124666758275
  0.9129219449885082  0.7944630074069138  0.1007761971695555
  0.4958655243311386  0.9135725748774228  0.0996483136108604
  0.9103837930673211  0.4988361057289656  0.1021093323332355
  0.6655213863545050  0.3268070646026419  0.1015959942591068
  0.3262149822546192  0.3263829693334293  0.1018688500264036
  0.3261238654143926  0.6713465530132329  0.1003231220476439
  0.6654585146856622  0.6711362367048628  0.1016806453138916
  0.4951518291720747  0.4987776499799351  0.1081241192057801
  0.9680163796662237  0.3131211224635957  0.2269927099988738
 -0.0017782828407366  0.2243780040194418  0.1814224652253210
  0.3680960857304966  0.1998102200045956  0.2476384425020140
  0.5479509098754092  0.1877058378992418  0.2393866920846332
  0.3501571366222409 -0.0171206801672406  0.5018315661859566
  0.4568714938172946  0.1287339636019103  0.5148813309601411
  0.8741463720554074  0.0551017662541973  0.3354082764730597
  0.7088722598606277  0.1225597770479565  0.3498078792420668
  0.1455970924763357  0.6365270990090710  0.2400975877400142
  0.3018495162564194  0.6541883704991721  0.2122899680122013
  0.2207526428689289  0.9178842874498004  0.2502292662910796
  0.1202412871132294  0.0751006584998129  0.2452114927168717
  0.7394963194306050  0.7914198647280489  0.4827209001457011
  0.6130073857470081  0.8596368547336891  0.5151957609782629
  0.7172971208599194  0.8166800986022140  0.2217844796907294
  0.7906314385379770  0.7236121811539006  0.1815525601340426
  0.7756330026595701  0.4034807855795353  0.4636396184017195
  0.8237431402900153  0.4320628899355389  0.4137541611677509
  0.3951334759242576  0.3896782584883358  0.4128287061946910
  0.2794217597425800  0.4477265021367760  0.4499210721991478
  0.0230972886610841  0.5429262641704355  0.4563446742241166
  0.1299458199687117  0.6977833176540787  0.4675093254195917
  0.4744730836836881  0.4162154816706159  0.1996503366064557
  0.5699244300608223  0.5795787364716705  0.1931784621075249
  0.1076908239110777  0.0161112185587808  0.3700342741691297
  0.1241740894994608  0.9770105191742645  0.3182407296201895
  0.0854781455054061  0.8765162868313913  0.5198762307722095
  0.1036030301575561  0.9806637097952930  0.4750275294403525
  0.8647854142831224  0.7785676567262640  0.5509720779906064
  0.0060976487448150  0.6861760444641317  0.5728504673381639
  0.1156466924360598  0.7195306220010070  0.3509635842394208
  0.1218827094009604  0.6027105686924376  0.3908433410551531
  0.6563611060848452  0.0078788637808327  0.4195112482561121
  0.5048745346098215  0.1037715815432448  0.4290010614361288
  0.5240306264753655  0.4205448436008357  0.4814429270450832
  0.6238612058827526  0.5519716437971993  0.5065674122432201
  1.0015627196492181  0.2130188788675758  0.4316402279353546
  0.1857534885621334  0.2032009965655590  0.4329011051407926
  0.5529322477754702  0.6724452547725716  0.3537096609533059
  0.5551369173971720  0.8581676340515827  0.3594736158857710
  0.3219431630890887  0.5302486422823954  0.3508691377519906
  0.4535739350996102  0.4216742050397660  0.3290657558542694
  0.7962046373150642  0.0837611700589042  0.2254839298725922
  0.7277185674238360  0.0431349873493601  0.2719220143033720
  0.9144819110252617  0.8572656765950626  0.4142708973025395
  0.7501948183730041  0.7876173760678997  0.3986962624694353
  0.9554746584176209  0.5153807715303927  0.2883897218873153
  0.8718872534964914  0.5825314134426711  0.2450701279397692
  0.9773426476875532  0.2069734776853789  0.2131588674258009
  0.4620447359541531  0.2668486947056189  0.2428082447043763
  0.4602618023516457  0.0243692705995281  0.5009867735573424
  0.7872677596919260  0.1254821227815102  0.3257308413789874
  0.2360790609579691  0.7075670452874241  0.2345584373446507
  0.2014999000374703  0.0233641298172985  0.2639330080318150
  0.6925481690653719  0.7741765907588080  0.5125388039811958
  0.7359804111477193  0.7074963943064153  0.2099879787109172
  0.8669231081357781  0.3958731104823698  0.4421106333962009
  0.3560038689828162  0.3613572876298217  0.4428562899503344
  0.1287055874426220  0.5924965022213124  0.4527798619778482
  0.4835057146686157  0.5130672792270657  0.1804596868541366
  0.0717007836430572  0.9431067535441080  0.3465800165869445
  0.1517710463692002  0.8947214251253928  0.4928951132512142
 -0.0290151860927851  0.7923394280914381  0.5647281600244290
  0.1274274167765598  0.6055851194363656  0.3579046572108995
  0.5747239736038477  0.0719073574252874  0.4045685051757093
  0.6203993600384452  0.4376245124076398  0.4996034853390613
  0.0901613583510910  0.1369124089793770  0.4288787589316666
  0.6235179710031040  0.7661757541679103  0.3543639754735775
  0.4317550120811169  0.4873735906444688  0.3551725675402508
  0.7073749662453009  0.0258228256249881  0.2396163117160892
  0.8098762466702366  0.8282112396249541  0.4252973707316083
  0.9589555786138522  0.5133816888376798  0.2558688122411091
 
  0.00000000E+00  0.00000000E+00  0.00000000E+00
  0.00000000E+00  0.00000000E+00  0.00000000E+00
  0.00000000E+00  0.00000000E+00  0.00000000E+00
  0.00000000E+00  0.00000000E+00  0.00000000E+00
  0.00000000E+00  0.00000000E+00  0.00000000E+00
  0.00000000E+00  0.00000000E+00  0.00000000E+00
  0.00000000E+00  0.00000000E+00  0.00000000E+00
  0.00000000E+00  0.00000000E+00  0.00000000E+00
  0.00000000E+00  0.00000000E+00  0.00000000E+00
  0.00000000E+00  0.00000000E+00  0.00000000E+00
  0.00000000E+00  0.00000000E+00  0.00000000E+00
  0.00000000E+00  0.00000000E+00  0.00000000E+00
  0.00000000E+00  0.00000000E+00  0.00000000E+00
  0.00000000E+00  0.00000000E+00  0.00000000E+00
  0.00000000E+00  0.00000000E+00  0.00000000E+00
  0.00000000E+00  0.00000000E+00  0.00000000E+00
  0.00000000E+00  0.00000000E+00  0.00000000E+00
  0.00000000E+00  0.00000000E+00  0.00000000E+00
  0.00000000E+00  0.00000000E+00  0.00000000E+00
  0.00000000E+00  0.00000000E+00  0.00000000E+00
  0.00000000E+00  0.00000000E+00  0.00000000E+00
  0.00000000E+00  0.00000000E+00  0.00000000E+00
  0.00000000E+00  0.00000000E+00  0.00000000E+00
  0.00000000E+00  0.00000000E+00  0.00000000E+00
  0.00000000E+00  0.00000000E+00  0.00000000E+00
  0.00000000E+00  0.00000000E+00  0.00000000E+00
  0.00000000E+00  0.00000000E+00  0.00000000E+00
  0.00000000E+00  0.00000000E+00  0.00000000E+00
  0.00000000E+00  0.00000000E+00  0.00000000E+00
  0.00000000E+00  0.00000000E+00  0.00000000E+00
  0.00000000E+00  0.00000000E+00  0.00000000E+00
  0.00000000E+00  0.00000000E+00  0.00000000E+00
  0.00000000E+00  0.00000000E+00  0.00000000E+00
  0.00000000E+00  0.00000000E+00  0.00000000E+00
  0.00000000E+00  0.00000000E+00  0.00000000E+00
  0.00000000E+00  0.00000000E+00  0.00000000E+00
  0.00000000E+00  0.00000000E+00  0.00000000E+00
  0.00000000E+00  0.00000000E+00  0.00000000E+00
  0.00000000E+00  0.00000000E+00  0.00000000E+00
  0.00000000E+00  0.00000000E+00  0.00000000E+00
  0.00000000E+00  0.00000000E+00  0.00000000E+00
  0.00000000E+00  0.00000000E+00  0.00000000E+00
  0.00000000E+00  0.00000000E+00  0.00000000E+00
  0.00000000E+00  0.00000000E+00  0.00000000E+00
  0.00000000E+00  0.00000000E+00  0.00000000E+00
  0.00000000E+00  0.00000000E+00  0.00000000E+00
  0.00000000E+00  0.00000000E+00  0.00000000E+00
  0.00000000E+00  0.00000000E+00  0.00000000E+00
  0.00000000E+00  0.00000000E+00  0.00000000E+00
  0.00000000E+00  0.00000000E+00  0.00000000E+00
  0.00000000E+00  0.00000000E+00  0.00000000E+00
  0.00000000E+00  0.00000000E+00  0.00000000E+00
  0.00000000E+00  0.00000000E+00  0.00000000E+00
  0.00000000E+00  0.00000000E+00  0.00000000E+00
  0.00000000E+00  0.00000000E+00  0.00000000E+00
  0.00000000E+00  0.00000000E+00  0.00000000E+00
  0.00000000E+00  0.00000000E+00  0.00000000E+00
  0.00000000E+00  0.00000000E+00  0.00000000E+00
  0.00000000E+00  0.00000000E+00  0.00000000E+00
  0.00000000E+00  0.00000000E+00  0.00000000E+00
  0.00000000E+00  0.00000000E+00  0.00000000E+00
  0.00000000E+00  0.00000000E+00  0.00000000E+00
  0.00000000E+00  0.00000000E+00  0.00000000E+00
  0.00000000E+00  0.00000000E+00  0.00000000E+00
  0.00000000E+00  0.00000000E+00  0.00000000E+00
  0.00000000E+00  0.00000000E+00  0.00000000E+00
  0.00000000E+00  0.00000000E+00  0.00000000E+00
  0.00000000E+00  0.00000000E+00  0.00000000E+00
  0.00000000E+00  0.00000000E+00  0.00000000E+00
  0.00000000E+00  0.00000000E+00  0.00000000E+00
  0.00000000E+00  0.00000000E+00  0.00000000E+00
  0.00000000E+00  0.00000000E+00  0.00000000E+00
  0.00000000E+00  0.00000000E+00  0.00000000E+00
  0.00000000E+00  0.00000000E+00  0.00000000E+00
  0.00000000E+00  0.00000000E+00  0.00000000E+00
  0.00000000E+00  0.00000000E+00  0.00000000E+00
  0.00000000E+00  0.00000000E+00  0.00000000E+00
  0.00000000E+00  0.00000000E+00  0.00000000E+00
  0.00000000E+00  0.00000000E+00  0.00000000E+00
  0.00000000E+00  0.00000000E+00  0.00000000E+00
  0.00000000E+00  0.00000000E+00  0.00000000E+00
  0.00000000E+00  0.00000000E+00  0.00000000E+00
  0.00000000E+00  0.00000000E+00  0.00000000E+00
  0.00000000E+00  0.00000000E+00  0.00000000E+00
  0.00000000E+00  0.00000000E+00  0.00000000E+00
  0.00000000E+00  0.00000000E+00  0.00000000E+00
  0.00000000E+00  0.00000000E+00  0.00000000E+00
  0.00000000E+00  0.00000000E+00  0.00000000E+00
  0.00000000E+00  0.00000000E+00  0.00000000E+00
  0.00000000E+00  0.00000000E+00  0.00000000E+00
  0.00000000E+00  0.00000000E+00  0.00000000E+00
  0.00000000E+00  0.00000000E+00  0.00000000E+00
  0.00000000E+00  0.00000000E+00  0.00000000E+00
  0.00000000E+00  0.00000000E+00  0.00000000E+00
  0.00000000E+00  0.00000000E+00  0.00000000E+00
  0.00000000E+00  0.00000000E+00  0.00000000E+00
  0.00000000E+00  0.00000000E+00  0.00000000E+00
