 C  H  N Ni  O                          
   1.00000000000000     
     8.3752332000000003    0.0000000000000000    0.0000000000000000
     0.0000000000000000    8.3752771999999993    0.0000000000000000
     0.0000000000000000    0.0000000000000000   30.0000000000000000
   C    H    N    Ni   O 
    20    46     4     1    23
Direct
  0.3306891562071846  0.9703374936499720  0.0905247095553795
  0.1854162902342784  0.0545890188735132  0.0899952653555332
  0.4758677218573064  0.0543456207342149  0.0905789777176315
  0.6275952522487898  0.7982670022235022  0.0902744112542131
  0.6276339676650755  0.9689870443293489  0.0901338813806119
  0.7450646394593616  0.0872728609328895  0.0894394873255191
  0.6603964678083657  0.2376312486128999  0.0895669026511254
  0.0335628528366641  0.9689334819400568  0.0896749396270777
  0.9162521746613153  0.0872178900802182  0.0892301026894061
  0.0009420531839408  0.2375012204247291  0.0892181358713939
  0.9175387659244234  0.3835110489310636  0.0891366834311726
  0.0008871872357083  0.5294771925584626  0.0894680787991609
  0.1854136406339428  0.7127351647561172  0.0900701116861110
  0.0336283415906816  0.7983204338118534  0.0898320179476758
  0.9162695781680914  0.6798146600572372  0.0896199806830869
  0.4758526407425249  0.7128579539832485  0.0905670556789298
  0.6604354800182008  0.5294634081621040  0.0897811692458706
  0.7450657629175432  0.6797852626105011  0.0898276653880848
  0.3306489246076144  0.7970197331669447  0.0905305760089478
  0.7438897879445090  0.3835145203753442  0.0892383701076012
  0.0838127597941072  0.9541027150413786  0.4372188791271854
  0.9632826217201185  0.1012384474548884  0.4292953479896465
  0.0575224569884378  0.7303731503889521  0.2853270324166672
  0.1507988400054460  0.5637413367101487  0.2877101508181990
  0.7491597522151239  0.6479018597400444  0.4598202312850178
  0.6745837013677878  0.5273882488217426  0.4951926910311285
  0.4180354002955625  0.1683713422838774  0.3510508267508292
  0.5275385638930077  0.3114059806874458  0.3418193939499922
  0.1299664520378332  0.0917426147803694  0.3750964844156686
  0.1630398417062765  0.2421077304549879  0.3441420585004121
  0.6554572724081992  0.7736640576978729  0.3967412771225464
  0.8105656394999168  0.8588906467559746  0.4139359458244254
  0.8116135190887007  0.3836305079896186  0.4467675843811365
  0.7281313136074057  0.2583639142401768  0.4153571466889621
  0.2462016172326787  0.2701484795098498  0.2027982948137063
  0.4081158261881182  0.3157462196854740  0.1786655880492053
  0.7843752516150008  0.3910608159953832  0.1750461099363196
  0.7585505742897730  0.3662744991275048  0.2261016146756296
  0.4215227975220404  0.7988943567578461  0.3508439262756529
  0.3994868557937332  0.6445265094810499  0.3799113763518591
  0.5068920353288824  0.8374473929985468  0.2403516419712025
  0.5325938297404471  0.7067271490887272  0.2043755309174323
  0.8488397852967775  0.5218213975558922  0.2789610667478864
  0.6762478742306930  0.5720510844317593  0.2664354132290324
  0.3789431053057182  0.4396506001439571  0.2661079123821343
  0.4055447081644679  0.5495392874912055  0.3084191222362122
  0.9197516995798174  0.4608127841811700  0.3851044445737334
  0.9947948892000733  0.5711663360859530  0.3465740385056016
  0.3691628883724883  0.0934352611783442  0.4580596643955003
  0.4522465179394203  0.1951140858777989  0.4207616122715657
  0.9977399474786586  0.7089858016710553  0.5583338318116293
  0.9418891124024000  0.6270653627331623  0.5142325161625128
  0.1649690144387591  0.5427118479866718  0.4046867564599231
  0.2987622887418836  0.4452674078090656  0.4307358401625914
  0.3045379814083985  0.0020466236437814  0.2564632805989538
  0.4185325366997714  0.1290589647171516  0.2364406343848698
  0.1070853716090356  1.0130302634982737  0.3059287671248309
  0.9384712373242416  0.9728116037708655  0.2879272201136568
  0.9682582722107028  0.2098292224269855  0.2001615853415232
  0.0625691674190611  0.0849828469371727  0.2284994080279184
  0.6888262363143408  0.0817183543781330  0.3258566829366813
  0.6577992856193318  0.0040569429564609  0.2805618462102138
  0.2563796102265388  0.7495039951296459  0.4533419536680694
  0.1596904771653886  0.8002292578966841  0.4944724504978399
  0.4652915575431676  0.3416569205575651  0.4948500005936290
  0.3983696818868953  0.4890532883888796  0.5204028127841139
  0.4959614472997467  0.2175618172859736  0.0904556976816501
  0.1654329357184584  0.2173134262275152  0.0895835857024106
  0.1654936636313494  0.5499292978094725  0.0898099635364017
  0.4958630795721009  0.5497831604869053  0.0904347103832609
  0.3303607845583548  0.3838007468943299  0.0900951810752174
  0.0137497210922951  1.0084133387414769  0.4149285004059209
  0.0437896688842907  0.6140140695757312  0.2892577762530477
  0.7756498866245611  0.5569532556636314  0.4800359860411459
  0.5252330531149362  0.2108295285197058  0.3584382883585163
  0.1945024500858644  0.1311850466974702  0.3488319226836454
  0.7082329638195242  0.8137528636684159  0.4237139435009581
  0.8327274812958805  0.2978662299898863  0.4243451334480043
  0.3564107918183644  0.3133811248500377  0.2077537903028869
  0.7731794491314302  0.3072493700816624  0.1972480952130214
  0.4689666947597904  0.6949460382701338  0.3567960305371367
  0.5532608103346776  0.7300462886815785  0.2355602958918786
  0.7405890071399160  0.4779739075124116  0.2743474419564391
  0.3410371246483009  0.4608889946741567  0.2964561718901616
  0.9911933382397550  0.5512659593573210  0.3790798470866825
  0.3994357700449656  0.2024405264712284  0.4499272786156296
  0.0377453271864944  0.6680770623756798  0.5301425948144924
  0.2734821202093788  0.5513580473926778  0.4192263365562178
  0.4176091986531465  0.0263248194741020  0.2529455692875185
  0.0535888762944655  0.9543057075322642  0.2812899732193658
  0.0728207088536251  0.1547802157732452  0.2021943968412575
  0.7376054722661239  0.0087340964801232  0.3041381748699561
  0.2241561809771102  0.8460549342277275  0.4698430070754935
  0.4955777588828815  0.4275887179313568  0.5157269898537671
 
  0.00000000E+00  0.00000000E+00  0.00000000E+00
  0.00000000E+00  0.00000000E+00  0.00000000E+00
  0.00000000E+00  0.00000000E+00  0.00000000E+00
  0.00000000E+00  0.00000000E+00  0.00000000E+00
  0.00000000E+00  0.00000000E+00  0.00000000E+00
  0.00000000E+00  0.00000000E+00  0.00000000E+00
  0.00000000E+00  0.00000000E+00  0.00000000E+00
  0.00000000E+00  0.00000000E+00  0.00000000E+00
  0.00000000E+00  0.00000000E+00  0.00000000E+00
  0.00000000E+00  0.00000000E+00  0.00000000E+00
  0.00000000E+00  0.00000000E+00  0.00000000E+00
  0.00000000E+00  0.00000000E+00  0.00000000E+00
  0.00000000E+00  0.00000000E+00  0.00000000E+00
  0.00000000E+00  0.00000000E+00  0.00000000E+00
  0.00000000E+00  0.00000000E+00  0.00000000E+00
  0.00000000E+00  0.00000000E+00  0.00000000E+00
  0.00000000E+00  0.00000000E+00  0.00000000E+00
  0.00000000E+00  0.00000000E+00  0.00000000E+00
  0.00000000E+00  0.00000000E+00  0.00000000E+00
  0.00000000E+00  0.00000000E+00  0.00000000E+00
  0.00000000E+00  0.00000000E+00  0.00000000E+00
  0.00000000E+00  0.00000000E+00  0.00000000E+00
  0.00000000E+00  0.00000000E+00  0.00000000E+00
  0.00000000E+00  0.00000000E+00  0.00000000E+00
  0.00000000E+00  0.00000000E+00  0.00000000E+00
  0.00000000E+00  0.00000000E+00  0.00000000E+00
  0.00000000E+00  0.00000000E+00  0.00000000E+00
  0.00000000E+00  0.00000000E+00  0.00000000E+00
  0.00000000E+00  0.00000000E+00  0.00000000E+00
  0.00000000E+00  0.00000000E+00  0.00000000E+00
  0.00000000E+00  0.00000000E+00  0.00000000E+00
  0.00000000E+00  0.00000000E+00  0.00000000E+00
  0.00000000E+00  0.00000000E+00  0.00000000E+00
  0.00000000E+00  0.00000000E+00  0.00000000E+00
  0.00000000E+00  0.00000000E+00  0.00000000E+00
  0.00000000E+00  0.00000000E+00  0.00000000E+00
  0.00000000E+00  0.00000000E+00  0.00000000E+00
  0.00000000E+00  0.00000000E+00  0.00000000E+00
  0.00000000E+00  0.00000000E+00  0.00000000E+00
  0.00000000E+00  0.00000000E+00  0.00000000E+00
  0.00000000E+00  0.00000000E+00  0.00000000E+00
  0.00000000E+00  0.00000000E+00  0.00000000E+00
  0.00000000E+00  0.00000000E+00  0.00000000E+00
  0.00000000E+00  0.00000000E+00  0.00000000E+00
  0.00000000E+00  0.00000000E+00  0.00000000E+00
  0.00000000E+00  0.00000000E+00  0.00000000E+00
  0.00000000E+00  0.00000000E+00  0.00000000E+00
  0.00000000E+00  0.00000000E+00  0.00000000E+00
  0.00000000E+00  0.00000000E+00  0.00000000E+00
  0.00000000E+00  0.00000000E+00  0.00000000E+00
  0.00000000E+00  0.00000000E+00  0.00000000E+00
  0.00000000E+00  0.00000000E+00  0.00000000E+00
  0.00000000E+00  0.00000000E+00  0.00000000E+00
  0.00000000E+00  0.00000000E+00  0.00000000E+00
  0.00000000E+00  0.00000000E+00  0.00000000E+00
  0.00000000E+00  0.00000000E+00  0.00000000E+00
  0.00000000E+00  0.00000000E+00  0.00000000E+00
  0.00000000E+00  0.00000000E+00  0.00000000E+00
  0.00000000E+00  0.00000000E+00  0.00000000E+00
  0.00000000E+00  0.00000000E+00  0.00000000E+00
  0.00000000E+00  0.00000000E+00  0.00000000E+00
  0.00000000E+00  0.00000000E+00  0.00000000E+00
  0.00000000E+00  0.00000000E+00  0.00000000E+00
  0.00000000E+00  0.00000000E+00  0.00000000E+00
  0.00000000E+00  0.00000000E+00  0.00000000E+00
  0.00000000E+00  0.00000000E+00  0.00000000E+00
  0.00000000E+00  0.00000000E+00  0.00000000E+00
  0.00000000E+00  0.00000000E+00  0.00000000E+00
  0.00000000E+00  0.00000000E+00  0.00000000E+00
  0.00000000E+00  0.00000000E+00  0.00000000E+00
  0.00000000E+00  0.00000000E+00  0.00000000E+00
  0.00000000E+00  0.00000000E+00  0.00000000E+00
  0.00000000E+00  0.00000000E+00  0.00000000E+00
  0.00000000E+00  0.00000000E+00  0.00000000E+00
  0.00000000E+00  0.00000000E+00  0.00000000E+00
  0.00000000E+00  0.00000000E+00  0.00000000E+00
  0.00000000E+00  0.00000000E+00  0.00000000E+00
  0.00000000E+00  0.00000000E+00  0.00000000E+00
  0.00000000E+00  0.00000000E+00  0.00000000E+00
  0.00000000E+00  0.00000000E+00  0.00000000E+00
  0.00000000E+00  0.00000000E+00  0.00000000E+00
  0.00000000E+00  0.00000000E+00  0.00000000E+00
  0.00000000E+00  0.00000000E+00  0.00000000E+00
  0.00000000E+00  0.00000000E+00  0.00000000E+00
  0.00000000E+00  0.00000000E+00  0.00000000E+00
  0.00000000E+00  0.00000000E+00  0.00000000E+00
  0.00000000E+00  0.00000000E+00  0.00000000E+00
  0.00000000E+00  0.00000000E+00  0.00000000E+00
  0.00000000E+00  0.00000000E+00  0.00000000E+00
  0.00000000E+00  0.00000000E+00  0.00000000E+00
  0.00000000E+00  0.00000000E+00  0.00000000E+00
  0.00000000E+00  0.00000000E+00  0.00000000E+00
  0.00000000E+00  0.00000000E+00  0.00000000E+00
  0.00000000E+00  0.00000000E+00  0.00000000E+00
