 C  N Co  O  H                          
   1.00000000000000     
    12.4758271799999996    0.0000000000000000    0.0000000000000000
     0.0000000000000000   12.7377722799999997    0.0000000000000000
     0.0000000000000000    0.0000000000000000   19.8713392800000008
   C    N    Co   O    H 
    54     4     1    46    91
Direct
  0.1137043740065289  0.2494634534070447  0.1493641111236040
  0.2141743278079961  0.3044292433268407  0.1493253442360286
  0.2134397167719014  0.4155899721948881  0.1479973168343720
  0.1137117862819679  0.4706614889915621  0.1464334515782950
  0.3150558338478328  0.2500615772308399  0.1506547087842036
  0.4151052174719116  0.3063942105813686  0.1508319973156954
  0.4139627247083037  0.4187072563921951  0.1502195894916957
  0.3126861761752634  0.4713063701289169  0.1488051593802331
  0.5151294576605224  0.2507589752604298  0.1517118129009590
  0.6136360491902760  0.3098688220110783  0.1514454277100177
  0.6137406258067126  0.4243210895696253  0.1512300666157570
  0.5120243551771646  0.4796583038963342  0.1512674233312054
  0.7120954863889575  0.2507382892760764  0.1507819240451378
  0.8122194334679936  0.3063888368938818  0.1493110124997912
  0.8134296618305074  0.4187216501968587  0.1479763415481781
  0.7154170295625819  0.4797526583752817  0.1493334899858053
  0.9123778353423962  0.2499904752721273  0.1493279215278404
  0.0132513919433580  0.3044473959840932  0.1484526669075953
  0.0139370542901785  0.4156255597365903  0.1467513085551064
  0.9146607648902115  0.4713070399337504  0.1464674195839114
  0.1137296763437167  0.5819597030494508  0.1460132772484111
  0.2119454742956021  0.6382704417032457  0.1473106517147225
  0.2119277282749657  0.7495620396928456  0.1483634191271447
  0.1136880568366049  0.8058343567211362  0.1482922123002658
  0.3107337450330066  0.5825596379748199  0.1485806552110346
  0.4083721438128187  0.6379632292453412  0.1500547064274685
  0.4084230435111146  0.7499553398152433  0.1506036878122856
  0.3107572324041425  0.8052649866648364  0.1500608744413322
  0.8187524050350449  0.6377985272003754  0.1472376314817898
  0.8187961928793731  0.7499357275518791  0.1481937642586375
  0.9164582450288381  0.5825063701136470  0.1462788276075636
  0.0153523682105974  0.6381872166842452  0.1461634052230403
  0.0153872342417245  0.7496164326981906  0.1473505809917780
  0.9164617092676783  0.8052868506269889  0.1481414828824221
  0.1136287118811136  0.9172218844767678  0.1496140532064056
  0.2133743586089820  0.9723559613717304  0.1506513941132642
  0.1136513555496349  0.1386010629775182  0.1502566039026274
  0.3125821132564071  0.9165669342547985  0.1509770435197963
  0.4139579916639794  0.9692632022348660  0.1518750728899259
  0.4151232584326514  0.0817191153984035  0.1520095108856855
  0.3150066115378672  0.1381091766958497  0.1514126103419357
  0.5120737434157188  0.9081647575376196  0.1525247400714932
  0.6136907098361524  0.9636973066707606  0.1525338048144682
  0.6136458892385069  0.0782593266834751  0.1521241524966439
  0.5151758769014142  0.1374366142155219  0.1521810897200752
  0.7153237775162568  0.9081921151569208  0.1509772674521511
  0.8133734921412517  0.9692286606723959  0.1497540251789522
  0.8122410994740226  0.0816847188793584  0.1501538597178710
  0.7121117483523772  0.1374126179924408  0.1510872066329474
  0.9146603241548917  0.9165824029428912  0.1491686863828431
  0.0138846232833921  0.9723505760530394  0.1497053313746580
  0.9123972725818269  0.1380564482492735  0.1499907533084195
  0.2141264329685185  0.0836292388409167  0.1509340703058668
  0.0132202736953858  0.0836035231850994  0.1501109720149284
  0.5066683803577713  0.5883143751656802  0.1510038586107042
  0.5068243374786391  0.7995545322848829  0.1519525524905961
  0.7208175847957309  0.5880587889307066  0.1479661504442006
  0.7206496749242091  0.7996983133012229  0.1500696639495120
  0.6139165404968631  0.6938439151093525  0.1600402517202011
  0.4513261696504027  0.4524796595703289  0.4182557797411540
  0.6468586286843341  0.1726423238765891  0.4013283000188761
  0.8563549006522123  0.8196989441480158  0.5684544953439673
  0.1055305645777577  0.4454421773889882  0.3190024130713644
  0.0830968011238374  0.9624329247800635  0.5236695153130864
  0.3520599241977762  0.1635489152006039  0.6874194569986625
  0.7049627409266167  0.8197039334577594  0.6869894613953005
  0.1987266730113837  0.2346354790265388  0.4175308788172158
  0.9358564222512548  0.6995400819251847  0.4058372003240852
  0.6741073909399651  0.4096129409516140  0.3963920159313294
  0.6435791531950882  0.8398103789833338  0.3492608173448508
  0.2389860226984976  0.8306469146152288  0.3562634273713041
  0.3401874808332859  0.4376765687747808  0.5835826025021192
  0.9351088918938220  0.6694274970323792  0.6795444174413032
  0.0881243590927405  0.1707776615765729  0.5865616384288294
  0.2509855007423111  0.7602139185108950  0.4856379799182488
 -0.0023195525017230  0.2998796857352785  0.4811753248438440
  0.7583315354299202  0.0160268589784637  0.3204351979218328
  0.3576068082500705  0.7530493742975906  0.6701539861696617
  0.9639969812486220  0.5240544247255671  0.4938353038057859
  0.7562467749696375  0.4755218209099457  0.5277131916941670
  0.8364559701144477  0.1448944887699583  0.4870895992482929
  0.1103718733037362  0.6626953569913541  0.3095240412645834
  0.7827200366277205  0.5067498081899042  0.7297562244632013
  0.4878915093063066  0.0332937473069012  0.4524443128023009
  0.1606372792637400  0.6142704001637165  0.6762218647114151
  0.9133806266121995  0.9590466992342485  0.4293486280808482
  0.5708337167452739  0.6491582388773245  0.7028987985714951
  0.1693044724040369  0.0465709041125686  0.3374176846200453
  0.9014597661070727  0.8319419662858051  0.7690836182915015
  0.4325301184332496  0.9151374928387256  0.3288746955955941
  0.0344915974034656  0.9887640218488375  0.7001605443285643
  0.0658296695744549  0.2111625371010050  0.7244005286820356
  0.5366864139966202  0.5388164825730946  0.5847805440750113
  0.4523937408852868  0.7327617220308918  0.5399163801505941
  0.8236563367249005  0.1166704964036536  0.6336526747505197
  0.2621187112139829  0.3906377049858903  0.7139306998386714
  0.6376056663945454  0.8537926037528025  0.4956957050823200
  0.1700258214238443  0.5713773337740962  0.5410495584942081
  0.3115651428337570  0.9730366494699336  0.5343266111554931
  0.8887053300522819  0.3131045571180507  0.6901063463798279
  0.3920662582638909  0.2648108613371395  0.3449691137892870
  0.8777116948009164  0.4476510943637532  0.3126128019350952
  0.2657231211465803  0.9591774086687308  0.6750475416087829
  0.2895315344000742  0.2296172224881013  0.5441042572782819
  0.6245392995703938  0.6870575134066373  0.2567879531239750
  0.4309995116249389  0.4411310923771635  0.4651348306345060
  0.4242815109647757  0.3903718771598909  0.3937456377417741
  0.6808011515574875  0.1227750311032085  0.3698397464331191
  0.5917237168860131  0.1311634413045042  0.4251897028527381
  0.9134835832050268  0.8702523159801419  0.5593856795896696
  0.7981673465817734  0.8372017970549023  0.5371520360284400
  0.1394642524945847  0.4001160826279173  0.3523381967706875
  0.0273755441927171  0.4365141704198442  0.3248981725112216
  0.0378472198886141  0.9675825529731689  0.4831975269304755
  0.0714275596948235  0.0280065413002639  0.5490278228613914
  0.3531316093390532  0.1766901996043057  0.6388018495498317
  0.3209430901188100  0.2277476147403997  0.7060803561885360
  0.7502309903471415  0.8281026776103726  0.6470297926591119
  0.7542817777572769  0.8339896020756088  0.7243105726517324
  0.1806921008558327  0.1630251800427384  0.4023851046852788
  0.2345875576580735  0.2277164087250681  0.4625859781969501
  0.9303801714469315  0.7691957164951875  0.4261394720241456
  0.9981344962814274  0.7016081277767902  0.3756815764145283
  0.6667373014299116  0.3329778787424014  0.3985105828982836
  0.5997474548588062  0.4349722557038543  0.4029657290524389
  0.5677420713779987  0.8609304749196059  0.3451495661868234
  0.6483705551615621  0.7803733379170863  0.3162492957490206
  0.2440813302554952  0.8057535498321152  0.4040910743533129
  0.2013709725109737  0.7728298363935208  0.3331932981065693
  0.4114750937250101  0.4737814984828807  0.5862005194011017
  0.2876919296159008  0.4879048057314506  0.5648744094969419
  0.9160966653398738  0.7018585194577823  0.6364492393738808
  0.0114316995932076  0.6489510870886317  0.6767993787120974
  0.0769853331069532  0.1821574445616241  0.6356211121644358
  0.0428925145255054  0.2226469470030424  0.5633653673422767
  0.2284357828381027  0.8225657467427285  0.5109404101032134
  0.3278786725820579  0.7525023694249781  0.4991540348233153
  0.0625926504401354  0.2857246036937991  0.4545672720190405
  0.9871124666729993  0.3767144960059446  0.4814640053752831
  0.7185999131817667  0.9486927206840975  0.3289446409296075
  0.7612526137173027  0.0230426073421525  0.2717684158384396
  0.3317037260379995  0.8250508783201784  0.6791942261310647
  0.2938218405761996  0.7083300431249936  0.6753323245691758
  0.9523334298910504  0.5830856746961458  0.4622421271623935
  0.8932243575565313  0.5150363873037547  0.5162683448457364
  0.7274757186367173  0.4530858701071996  0.4839077760797375
  0.6933961231133657  0.4985338000813075  0.5533780079123027
  0.7698089776025194  0.1650609518946911  0.4639492842254251
  0.8868167400849614  0.2042685380073506  0.4813072696843630
  0.0710085355897443  0.6664735366598928  0.2673592006928913
  0.1196098015174365  0.5858914340100025  0.3175645105695943
  0.8294266179298074  0.5604245561636124  0.7098340395911292
  0.7107921795057986  0.5367564708446615  0.7286473148487710
  0.4285886877104026  0.0259503046533762  0.4854206722196787
  0.4627650154760404  0.9958500397308537  0.4123030001393422
  0.1635833848081626  0.5973238709966255  0.6271788076699891
  0.1748598851871613  0.5470876792013383  0.6984693390662138
  0.8819778662615566  0.0227168762196715  0.4506472048274247
  0.8942688678699904  0.9685400184028764  0.3820708079009010
  0.5008199119347129  0.6838063237083246  0.7063653931468602
  0.6220538444877564  0.7084597911386575  0.6963416063522808
  0.1843342850170766  0.9723142333480118  0.3482967215553049
  0.2295635408713412  0.0677204293135415  0.3094336310490744
  0.9042410853273392  0.8089037015802095  0.8157041648616675
  0.9182785851076097  0.7686556964391386  0.7414539815184557
  0.3635581416317791  0.8758428675789306  0.3352974719971817
  0.4316820309116655  0.9409509770529053  0.2828586360785889
  0.9956746963788158  0.9410928728054305  0.7305954832315043
  0.0408761391508742  0.0562025110497258  0.7237174700222651
  0.9995902865243462  0.2559625769605455  0.7206488021395181
  0.1242876787169014  0.2592913499609985  0.7347272447663858
  0.5157628410011911  0.6020546832773425  0.5590150669944532
  0.5534053696452573  0.5701962290287585  0.6297087141991553
  0.4285022399882092  0.7493941266583003  0.5863507919835949
  0.5137092170343038  0.7789488483282490  0.5290339499786458
  0.8267309338793333  0.1228037881134192  0.5843633395756284
  0.8831347726606530  0.0706421927600201  0.6460660505944938
  0.3143322798288397  0.4156794589324126  0.7466600577122466
  0.2942720233363594  0.4074977788279624  0.6693502533402063
  0.6491186067575530  0.8335523403163030  0.4483656111866574
  0.6037830104081057  0.9231909798584103  0.4918423219658833
  0.1895029239466008  0.6375756217758597  0.5179807463480268
  0.0961614719413874  0.5525475838036328  0.5265277857690105
  0.2382038425680815  0.9902950877351218  0.5200510304825351
  0.3042883745456925  0.9703223183219126  0.5839263802359119
  0.8458219822307058  0.2549914712642862  0.6715388537693665
  0.8405317900408122  0.3696075117748324  0.7049523179563192
  0.3244108264547187  0.2499469151547374  0.3694359919620309
  0.4454433808757824  0.2186888454280931  0.3653790825339266
  0.8443148082812333  0.3903137976589545  0.2880421073003323
  0.8255977906101145  0.4623380309217715  0.3483523370276572
  0.2933637224681032  0.0275942942501940  0.6909164607825325
  0.1875383167852507  0.9615220119833203  0.6828856474148084
  0.2194117412699061  0.2123126271507279  0.5656010114790581
  0.3061080118092942  0.3029941937922246  0.5563899333999468
  0.5690505403381546  0.6395601828562469  0.2733246393893378
 
  0.00000000E+00  0.00000000E+00  0.00000000E+00
  0.00000000E+00  0.00000000E+00  0.00000000E+00
  0.00000000E+00  0.00000000E+00  0.00000000E+00
  0.00000000E+00  0.00000000E+00  0.00000000E+00
  0.00000000E+00  0.00000000E+00  0.00000000E+00
  0.00000000E+00  0.00000000E+00  0.00000000E+00
  0.00000000E+00  0.00000000E+00  0.00000000E+00
  0.00000000E+00  0.00000000E+00  0.00000000E+00
  0.00000000E+00  0.00000000E+00  0.00000000E+00
  0.00000000E+00  0.00000000E+00  0.00000000E+00
  0.00000000E+00  0.00000000E+00  0.00000000E+00
  0.00000000E+00  0.00000000E+00  0.00000000E+00
  0.00000000E+00  0.00000000E+00  0.00000000E+00
  0.00000000E+00  0.00000000E+00  0.00000000E+00
  0.00000000E+00  0.00000000E+00  0.00000000E+00
  0.00000000E+00  0.00000000E+00  0.00000000E+00
  0.00000000E+00  0.00000000E+00  0.00000000E+00
  0.00000000E+00  0.00000000E+00  0.00000000E+00
  0.00000000E+00  0.00000000E+00  0.00000000E+00
  0.00000000E+00  0.00000000E+00  0.00000000E+00
  0.00000000E+00  0.00000000E+00  0.00000000E+00
  0.00000000E+00  0.00000000E+00  0.00000000E+00
  0.00000000E+00  0.00000000E+00  0.00000000E+00
  0.00000000E+00  0.00000000E+00  0.00000000E+00
  0.00000000E+00  0.00000000E+00  0.00000000E+00
  0.00000000E+00  0.00000000E+00  0.00000000E+00
  0.00000000E+00  0.00000000E+00  0.00000000E+00
  0.00000000E+00  0.00000000E+00  0.00000000E+00
  0.00000000E+00  0.00000000E+00  0.00000000E+00
  0.00000000E+00  0.00000000E+00  0.00000000E+00
  0.00000000E+00  0.00000000E+00  0.00000000E+00
  0.00000000E+00  0.00000000E+00  0.00000000E+00
  0.00000000E+00  0.00000000E+00  0.00000000E+00
  0.00000000E+00  0.00000000E+00  0.00000000E+00
  0.00000000E+00  0.00000000E+00  0.00000000E+00
  0.00000000E+00  0.00000000E+00  0.00000000E+00
  0.00000000E+00  0.00000000E+00  0.00000000E+00
  0.00000000E+00  0.00000000E+00  0.00000000E+00
  0.00000000E+00  0.00000000E+00  0.00000000E+00
  0.00000000E+00  0.00000000E+00  0.00000000E+00
  0.00000000E+00  0.00000000E+00  0.00000000E+00
  0.00000000E+00  0.00000000E+00  0.00000000E+00
  0.00000000E+00  0.00000000E+00  0.00000000E+00
  0.00000000E+00  0.00000000E+00  0.00000000E+00
  0.00000000E+00  0.00000000E+00  0.00000000E+00
  0.00000000E+00  0.00000000E+00  0.00000000E+00
  0.00000000E+00  0.00000000E+00  0.00000000E+00
  0.00000000E+00  0.00000000E+00  0.00000000E+00
  0.00000000E+00  0.00000000E+00  0.00000000E+00
  0.00000000E+00  0.00000000E+00  0.00000000E+00
  0.00000000E+00  0.00000000E+00  0.00000000E+00
  0.00000000E+00  0.00000000E+00  0.00000000E+00
  0.00000000E+00  0.00000000E+00  0.00000000E+00
  0.00000000E+00  0.00000000E+00  0.00000000E+00
  0.00000000E+00  0.00000000E+00  0.00000000E+00
  0.00000000E+00  0.00000000E+00  0.00000000E+00
  0.00000000E+00  0.00000000E+00  0.00000000E+00
  0.00000000E+00  0.00000000E+00  0.00000000E+00
  0.00000000E+00  0.00000000E+00  0.00000000E+00
  0.00000000E+00  0.00000000E+00  0.00000000E+00
  0.00000000E+00  0.00000000E+00  0.00000000E+00
  0.00000000E+00  0.00000000E+00  0.00000000E+00
  0.00000000E+00  0.00000000E+00  0.00000000E+00
  0.00000000E+00  0.00000000E+00  0.00000000E+00
  0.00000000E+00  0.00000000E+00  0.00000000E+00
  0.00000000E+00  0.00000000E+00  0.00000000E+00
  0.00000000E+00  0.00000000E+00  0.00000000E+00
  0.00000000E+00  0.00000000E+00  0.00000000E+00
  0.00000000E+00  0.00000000E+00  0.00000000E+00
  0.00000000E+00  0.00000000E+00  0.00000000E+00
  0.00000000E+00  0.00000000E+00  0.00000000E+00
  0.00000000E+00  0.00000000E+00  0.00000000E+00
  0.00000000E+00  0.00000000E+00  0.00000000E+00
  0.00000000E+00  0.00000000E+00  0.00000000E+00
  0.00000000E+00  0.00000000E+00  0.00000000E+00
  0.00000000E+00  0.00000000E+00  0.00000000E+00
  0.00000000E+00  0.00000000E+00  0.00000000E+00
  0.00000000E+00  0.00000000E+00  0.00000000E+00
  0.00000000E+00  0.00000000E+00  0.00000000E+00
  0.00000000E+00  0.00000000E+00  0.00000000E+00
  0.00000000E+00  0.00000000E+00  0.00000000E+00
  0.00000000E+00  0.00000000E+00  0.00000000E+00
  0.00000000E+00  0.00000000E+00  0.00000000E+00
  0.00000000E+00  0.00000000E+00  0.00000000E+00
  0.00000000E+00  0.00000000E+00  0.00000000E+00
  0.00000000E+00  0.00000000E+00  0.00000000E+00
  0.00000000E+00  0.00000000E+00  0.00000000E+00
  0.00000000E+00  0.00000000E+00  0.00000000E+00
  0.00000000E+00  0.00000000E+00  0.00000000E+00
  0.00000000E+00  0.00000000E+00  0.00000000E+00
  0.00000000E+00  0.00000000E+00  0.00000000E+00
  0.00000000E+00  0.00000000E+00  0.00000000E+00
  0.00000000E+00  0.00000000E+00  0.00000000E+00
  0.00000000E+00  0.00000000E+00  0.00000000E+00
  0.00000000E+00  0.00000000E+00  0.00000000E+00
  0.00000000E+00  0.00000000E+00  0.00000000E+00
  0.00000000E+00  0.00000000E+00  0.00000000E+00
  0.00000000E+00  0.00000000E+00  0.00000000E+00
  0.00000000E+00  0.00000000E+00  0.00000000E+00
  0.00000000E+00  0.00000000E+00  0.00000000E+00
  0.00000000E+00  0.00000000E+00  0.00000000E+00
  0.00000000E+00  0.00000000E+00  0.00000000E+00
  0.00000000E+00  0.00000000E+00  0.00000000E+00
  0.00000000E+00  0.00000000E+00  0.00000000E+00
  0.00000000E+00  0.00000000E+00  0.00000000E+00
  0.00000000E+00  0.00000000E+00  0.00000000E+00
  0.00000000E+00  0.00000000E+00  0.00000000E+00
  0.00000000E+00  0.00000000E+00  0.00000000E+00
  0.00000000E+00  0.00000000E+00  0.00000000E+00
  0.00000000E+00  0.00000000E+00  0.00000000E+00
  0.00000000E+00  0.00000000E+00  0.00000000E+00
  0.00000000E+00  0.00000000E+00  0.00000000E+00
  0.00000000E+00  0.00000000E+00  0.00000000E+00
  0.00000000E+00  0.00000000E+00  0.00000000E+00
  0.00000000E+00  0.00000000E+00  0.00000000E+00
  0.00000000E+00  0.00000000E+00  0.00000000E+00
  0.00000000E+00  0.00000000E+00  0.00000000E+00
  0.00000000E+00  0.00000000E+00  0.00000000E+00
  0.00000000E+00  0.00000000E+00  0.00000000E+00
  0.00000000E+00  0.00000000E+00  0.00000000E+00
  0.00000000E+00  0.00000000E+00  0.00000000E+00
  0.00000000E+00  0.00000000E+00  0.00000000E+00
  0.00000000E+00  0.00000000E+00  0.00000000E+00
  0.00000000E+00  0.00000000E+00  0.00000000E+00
  0.00000000E+00  0.00000000E+00  0.00000000E+00
  0.00000000E+00  0.00000000E+00  0.00000000E+00
  0.00000000E+00  0.00000000E+00  0.00000000E+00
  0.00000000E+00  0.00000000E+00  0.00000000E+00
  0.00000000E+00  0.00000000E+00  0.00000000E+00
  0.00000000E+00  0.00000000E+00  0.00000000E+00
  0.00000000E+00  0.00000000E+00  0.00000000E+00
  0.00000000E+00  0.00000000E+00  0.00000000E+00
  0.00000000E+00  0.00000000E+00  0.00000000E+00
  0.00000000E+00  0.00000000E+00  0.00000000E+00
  0.00000000E+00  0.00000000E+00  0.00000000E+00
  0.00000000E+00  0.00000000E+00  0.00000000E+00
  0.00000000E+00  0.00000000E+00  0.00000000E+00
  0.00000000E+00  0.00000000E+00  0.00000000E+00
  0.00000000E+00  0.00000000E+00  0.00000000E+00
  0.00000000E+00  0.00000000E+00  0.00000000E+00
  0.00000000E+00  0.00000000E+00  0.00000000E+00
  0.00000000E+00  0.00000000E+00  0.00000000E+00
  0.00000000E+00  0.00000000E+00  0.00000000E+00
  0.00000000E+00  0.00000000E+00  0.00000000E+00
  0.00000000E+00  0.00000000E+00  0.00000000E+00
  0.00000000E+00  0.00000000E+00  0.00000000E+00
  0.00000000E+00  0.00000000E+00  0.00000000E+00
  0.00000000E+00  0.00000000E+00  0.00000000E+00
  0.00000000E+00  0.00000000E+00  0.00000000E+00
  0.00000000E+00  0.00000000E+00  0.00000000E+00
  0.00000000E+00  0.00000000E+00  0.00000000E+00
  0.00000000E+00  0.00000000E+00  0.00000000E+00
  0.00000000E+00  0.00000000E+00  0.00000000E+00
  0.00000000E+00  0.00000000E+00  0.00000000E+00
  0.00000000E+00  0.00000000E+00  0.00000000E+00
  0.00000000E+00  0.00000000E+00  0.00000000E+00
  0.00000000E+00  0.00000000E+00  0.00000000E+00
  0.00000000E+00  0.00000000E+00  0.00000000E+00
  0.00000000E+00  0.00000000E+00  0.00000000E+00
  0.00000000E+00  0.00000000E+00  0.00000000E+00
  0.00000000E+00  0.00000000E+00  0.00000000E+00
  0.00000000E+00  0.00000000E+00  0.00000000E+00
  0.00000000E+00  0.00000000E+00  0.00000000E+00
  0.00000000E+00  0.00000000E+00  0.00000000E+00
  0.00000000E+00  0.00000000E+00  0.00000000E+00
  0.00000000E+00  0.00000000E+00  0.00000000E+00
  0.00000000E+00  0.00000000E+00  0.00000000E+00
  0.00000000E+00  0.00000000E+00  0.00000000E+00
  0.00000000E+00  0.00000000E+00  0.00000000E+00
  0.00000000E+00  0.00000000E+00  0.00000000E+00
  0.00000000E+00  0.00000000E+00  0.00000000E+00
  0.00000000E+00  0.00000000E+00  0.00000000E+00
  0.00000000E+00  0.00000000E+00  0.00000000E+00
  0.00000000E+00  0.00000000E+00  0.00000000E+00
  0.00000000E+00  0.00000000E+00  0.00000000E+00
  0.00000000E+00  0.00000000E+00  0.00000000E+00
  0.00000000E+00  0.00000000E+00  0.00000000E+00
  0.00000000E+00  0.00000000E+00  0.00000000E+00
  0.00000000E+00  0.00000000E+00  0.00000000E+00
  0.00000000E+00  0.00000000E+00  0.00000000E+00
  0.00000000E+00  0.00000000E+00  0.00000000E+00
  0.00000000E+00  0.00000000E+00  0.00000000E+00
  0.00000000E+00  0.00000000E+00  0.00000000E+00
  0.00000000E+00  0.00000000E+00  0.00000000E+00
  0.00000000E+00  0.00000000E+00  0.00000000E+00
  0.00000000E+00  0.00000000E+00  0.00000000E+00
  0.00000000E+00  0.00000000E+00  0.00000000E+00
  0.00000000E+00  0.00000000E+00  0.00000000E+00
  0.00000000E+00  0.00000000E+00  0.00000000E+00
  0.00000000E+00  0.00000000E+00  0.00000000E+00
  0.00000000E+00  0.00000000E+00  0.00000000E+00
  0.00000000E+00  0.00000000E+00  0.00000000E+00
  0.00000000E+00  0.00000000E+00  0.00000000E+00
  0.00000000E+00  0.00000000E+00  0.00000000E+00
  0.00000000E+00  0.00000000E+00  0.00000000E+00
  0.00000000E+00  0.00000000E+00  0.00000000E+00
