 C  N Mn  O  H                          
   1.00000000000000     
    12.5075085000000001    0.0000000000000000    0.0000000000000000
     0.0000000000000000   12.7423731000000000    0.0000000000000000
     0.0000000000000000    0.0000000000000000   30.0000000000000000
   C    N    Mn   O    H 
    54     4     1    46    92
Direct
  0.0602685882856902  0.1706365494954477  0.0800754069210282
  0.1608127539110346  0.2256499914979914  0.0800918165859592
  0.1602548145502548  0.3370532886411823  0.0790940510908788
  0.0602925398424426  0.3923192450205675  0.0784352872321838
  0.2616589879532221  0.1711580753934029  0.0812930751367090
  0.3615815875859496  0.2273075672760595  0.0814766499541213
  0.3604951687847069  0.3392101576279388  0.0808011548692743
  0.2593240565695390  0.3926484980955924  0.0795675730282235
  0.4619919677499207  0.1717925455491016  0.0823786642215059
  0.5604389671073600  0.2308182627209001  0.0821330135917933
  0.5604360959030141  0.3445731693592584  0.0822948067969358
  0.4582608229652127  0.3994129283836272  0.0820445148588059
  0.6588928144555449  0.1718368068624302  0.0816420943041546
  0.7591909633166927  0.2274255201740366  0.0803164032166690
  0.7602519245308194  0.3393110285737938  0.0800686207179916
  0.6625381452224423  0.3994947399634943  0.0820043425737951
  0.8590582334476005  0.1713237657218446  0.0801943795093786
  0.9598159357881819  0.2257474633687617  0.0794983081716790
  0.9603556546588153  0.3369822912742811  0.0788207175373357
  0.8613495506137359  0.3926157855403465  0.0793642838660051
  0.0602977042411129  0.5034699282174424  0.0785099200510605
  0.1585174713233076  0.5597918134873692  0.0791518385219690
  0.1584791420792293  0.6709615621425592  0.0806551096899965
  0.0603366969347905  0.7272831642650879  0.0812477505229991
  0.2573065913771909  0.5042411187999352  0.0795611632638275
  0.3546947983190206  0.5595591256049648  0.0814508034243015
  0.3546479395961438  0.6711069821539821  0.0823864786583953
  0.2572241019483498  0.7264896050552166  0.0819369477136426
  0.7660171668926982  0.5594622878755084  0.0823027074788281
  0.7661112550764423  0.6709102126540563  0.0832545259181471
  0.8633945250845784  0.5041826971285381  0.0800427601224314
  0.9621257571191728  0.5597512485049437  0.0794752907970636
  0.9622225736148329  0.6708641777315325  0.0808071495612269
  0.8634590894457675  0.7263115824726244  0.0822216418568779
  0.0603944637476539  0.8383110787533601  0.0823148397897172
  0.1601854721319690  0.8936164121696155  0.0826688291183419
  0.0603724000441135  0.0598039874068718  0.0813314139803884
  0.2591628212160245  0.8380494155005054  0.0828505189933369
  0.3603312656571918  0.8914078386283216  0.0833044136966132
  0.3614518263375299  0.0033353891335016  0.0830854385770362
  0.2615286937111287  0.0593588216303288  0.0823036691085271
  0.4581285337459518  0.8311275951574295  0.0840025943221119
  0.5603532209600588  0.8859999219264626  0.0842076507395962
  0.5604330254009189  0.9999794675960264  0.0832321649416026
  0.4618608560814838  0.0590677889892865  0.0830473962385045
  0.6624711761153692  0.8309354975117562  0.0841755019909622
  0.7603205185842853  0.8912381854382293  0.0826703534956496
  0.7592672335541311  0.0034189891995365  0.0818784247175178
  0.6588581808949507  0.0592101000910471  0.0822857995637144
  0.8616341289938593  0.8378888478516145  0.0825819817031966
  0.9605691078643074  0.8935863479411040  0.0823407305506082
  0.8592599930721800  0.0594965309493893  0.0811902814793561
  0.1607634118801801  0.0048696588490449  0.0822514711259282
  0.9599872163079060  0.0048954074748654  0.0817007024261469
  0.4523149837600268  0.5072835374525626  0.0830591659537449
  0.4522428564239632  0.7233274734495234  0.0842394742588911
  0.6683726453450858  0.5072380642209823  0.0840254437759472
  0.6683625179759423  0.7231055996856823  0.0855226397023506
  0.5599547246549910  0.6151920060580566  0.0898650654961436
  0.5487102905171322  0.6181556284004541  0.1651157045987039
  0.9700978901555739  0.5930429215106243  0.2004365322821718
  0.5515012336876504  0.0081316202283954  0.1947027834592883
  0.3666930798367397  0.8722661746021951  0.2253836907746575
  0.6894150434791430  0.9320405067521829  0.3189816367408037
  0.7385469992772778  0.5363412103605569  0.1982892693858025
  0.9085627927907572  0.9759234572334911  0.4165758183004052
  0.3566467480189791  0.6721665417147512  0.2715743763194944
  0.3663291999739195  0.5129547066642948  0.2085172818731194
  0.0756706973556976  0.2989952762632082  0.3207066411487658
  0.7818696466308431  0.2464661682059286  0.4710378022164871
  0.6640583534931611  0.2513909718882025  0.3657806996134980
  0.1495704017395075  0.4625814643660825  0.1870377636233194
  0.2239802483016150  0.2192742861740609  0.2602664180783575
  0.9781514569816279  0.0871494510169942  0.3371764627808206
  0.3671842704754902  0.4257655394759992  0.4246669884743617
  0.8537395604975864  0.7824388624755850  0.3028555155059360
  0.6399796490965818  0.5430182420054402  0.3657314257254751
  0.4761040852582472  0.9275336299412517  0.3066175410421288
  0.5936351256210523  0.1229986210393671  0.4364693677774166
  0.7107112731911303  0.3225610595865401  0.1850010201086976
  0.4175181903337797  0.3362235648973162  0.2640371674777706
  0.7663384542655444  0.5831905974549750  0.2897193382957198
  0.7803692823455595  0.9586771515525189  0.1901823111357518
  0.1490940283844038  0.9385017497347472  0.2145278255817488
  0.4541052237198235  0.5945211454883721  0.4786511559452748
  0.7849329628496203  0.4167373612891963  0.4106772290973841
  0.0974436182432284  0.1489626583616933  0.1894581152798565
  0.2023198326053600  0.1825581705234465  0.4022100330699063
  0.1625367144429748  0.6226666931026433  0.3139736162046631
  0.4927817663149682  0.3860285717382747  0.3494549679070361
  0.1863137468684529  0.8337473825738186  0.3557496399053344
  0.5879330424502975  0.1967923763995870  0.2444014489167821
  0.1703836158954423  0.4646873851068740  0.3808535488360361
  0.8722444890041018  0.1545026441518357  0.2096261984320568
  0.3822147219392997  0.2277028046234279  0.4614024161277087
  0.7684780875327576  0.1272398230958104  0.3017937284058217
  0.9639882368686823  0.5554525304303813  0.3954689084386069
  0.3975558592741411  0.7579062681973320  0.3585275068983179
  0.9621597240222501  0.4863698301491541  0.3061131303823604
  0.1753355926497514  0.0177615711164594  0.3008373413524971
  0.0091962276423151  0.1631109022557472  0.4509948327469107
  0.5697056661166884  0.7163112216636838  0.4156307611169918
  0.9567836750756645  0.8213238303433834  0.2205623443125011
  0.6843286668380771  0.9199779155117500  0.4121495075418902
  0.9829603002343388  0.7784527109489627  0.3839839622334737
  0.6147559693909187  0.5880404673018933  0.1785407762472442
  0.4876822777412279  0.5791097053665031  0.1774943278645608
  0.9686219054308516  0.6699950156936525  0.2023388709339626
  0.8955480403858492  0.5719964879099656  0.1949660831364866
  0.6252151134555179  0.9801366268169326  0.1961173852750266
  0.5429401897240212  0.0279917977514078  0.1634413686755242
  0.2956111327406582  0.8967715291797226  0.2157702332181808
  0.4204467030940606  0.9053374185440163  0.2062464677274892
  0.6136840675165637  0.9214189447883127  0.3088887831060090
  0.7357207646196130  0.8740790599596948  0.3085534405954020
  0.7374244872420620  0.5489303324661434  0.2308028854761808
  0.7305997693991457  0.4590720895370975  0.1945492321679372
  0.9339195150385177  0.0301636545203488  0.4373210842515957
  0.8304503294537880  0.9672323516007048  0.4202795193636203
  0.3619187355655377  0.7376149354401590  0.2542285174034568
  0.3661574592812650  0.6150545970886279  0.2492934628951148
  0.2913658488055326  0.5014717102382920  0.1988920694618604
  0.3865685149133631  0.4485453527687171  0.2248046270945180
  0.0361905756275593  0.2370050447162865  0.3311538823414938
  0.0230420354043475  0.3533921401960755  0.3121878856280921
  0.7212768527353687  0.2002432181212869  0.4637678021253901
  0.8461854311170346  0.2103644416638287  0.4606279670835277
  0.7132701767857406  0.3035765639238563  0.3786273054206986
  0.6003622220669663  0.2932262630408265  0.3566739950365648
  0.1422301790553192  0.4370658313090294  0.1566106892537534
  0.0882499419584673  0.5111425827006256  0.1908906718335958
  0.1712943255770113  0.2577802195784696  0.2790075901784043
  0.2267803411790578  0.1498112728490986  0.2748963838553178
  0.9084036090118840  0.0976297892204121  0.3223034019833939
  0.9594918923083552  0.0462719036375836  0.3640711840469452
  0.4111353610067899  0.4130395735472315  0.3975215398685786
  0.2949176819056424  0.4398276332198763  0.4122516820923736
  0.8231314037790288  0.7108165675215937  0.2990660846015505
  0.8969972963833889  0.7803444675008777  0.3304217868251164
  0.6863170340729771  0.5011846577905142  0.3858470304012744
  0.6201931699984877  0.6065271219606188  0.3828862272649383
  0.4358591860914444  0.9169818972439673  0.2787677209911870
  0.4481460553152294  0.8726955765595897  0.3267789399202225
  0.5231546602508435  0.1483555824830144  0.4460869549197781
  0.6101857803255385  0.1648745278382847  0.4094904957347352
  0.6612623855191265  0.2847609134108771  0.2049808227582417
  0.7744887469487335  0.2781111702556253  0.1850922892081520
  0.3512487703281295  0.2934870223325798  0.2633876148218385
  0.4758242285988187  0.2868367239492745  0.2564159997446778
  0.8313958144694100  0.5397887607421494  0.2941100532306560
  0.7187910449674791  0.5675879813228446  0.3153059877136080
  0.7811836821659502  0.9516634543104562  0.1577433357628377
  0.8137090496611303  0.0283606512372213  0.1958949650269626
  0.1290966663697217  1.0043616908781563  0.1994011203454385
  0.0838597157437156  0.8939936641470381  0.2148543169264104
  0.4222357011667625  0.5387888692473266  0.4598461087688925
  0.3942517258701201  0.6246196583365520  0.4949162888575107
  0.8507755778133148  0.4591462353234800  0.4101331758226917
  0.7866061275828568  0.3711721907290069  0.4373756744173371
  0.1459398355993466  0.1851949886539252  0.2108125895690577
  0.1134691818096331  0.1768570226694095  0.1599184974782870
  0.2231278709019758  0.1397629821761397  0.3767524436398121
  0.2650184024967039  0.1850500562207074  0.4220200629975014
  0.1511577899494593  0.6920520532820761  0.3274402737543867
  0.2277133101292153  0.6354343366246320  0.2958263971467942
  0.4598574715322707  0.3765824368123286  0.3195279415239127
  0.5366194124780848  0.4509809392475525  0.3490703223864533
  0.1912925041445136  0.8972795517418771  0.3369339476897782
  0.2602511128850318  0.8120485583567600  0.3625689737743369
  0.5688058892993112  0.1315107847908600  0.2284244738444303
  0.6450820603193148  0.1760550648929544  0.2651840066220619
  0.1479606600677037  0.3993505010852709  0.3660119518299000
  0.1775760384794387  0.5172055397120272  0.3564576744934127
  0.9504795331713162  0.1577527003173320  0.2050250816066335
  0.8590776818211480  0.1604362737319754  0.2416908066116346
  0.3785054902719237  0.3023148157191132  0.4509000496626279
  0.3746825042668592  0.2312032802518679  0.4936470382782587
  0.7372158133282730  0.1711671887984278  0.3258309922692135
  0.7390086594927889  0.0550052361774400  0.3069715580734294
  0.9676985049248846  0.6330356302790054  0.3964270627925728
  0.0375028652760710  0.5296628297314918  0.4001453214348191
  0.3984513382554895  0.7083376489361368  0.3333880933462330
  0.4563000158391027  0.7390604141653517  0.3791807888294618
  0.9659913076870048  0.5140388149905701  0.3370607045150223
  0.0138403680038301  0.5292300982811128  0.2895983206739515
  0.1020441384894156  0.0381031512348384  0.3098852300101170
  0.1666190038865879  0.9846302222582843  0.2709599872422410
  0.0403808968930533  0.1748734261696219  0.4802602272479898
  0.0708636305772434  0.1696391395553373  0.4302962659870716
  0.5393347700207115  0.6877836683831428  0.4435092715899171
  0.6098720834183563  0.7813662668654591  0.4217385263670669
  0.8978439784777187  0.8623431636247271  0.2074353765680962
  0.9310703289820842  0.8079596665161156  0.2513611034229361
  0.6408902126605129  0.9806902026388721  0.4215380076485085
  0.6832974564516578  0.9228513149817019  0.3789442409291728
  0.9567676225900423  0.8382917027254034  0.4017134206921210
  0.0574411291084146  0.7986130972665076  0.3764249147611985
 
  0.00000000E+00  0.00000000E+00  0.00000000E+00
  0.00000000E+00  0.00000000E+00  0.00000000E+00
  0.00000000E+00  0.00000000E+00  0.00000000E+00
  0.00000000E+00  0.00000000E+00  0.00000000E+00
  0.00000000E+00  0.00000000E+00  0.00000000E+00
  0.00000000E+00  0.00000000E+00  0.00000000E+00
  0.00000000E+00  0.00000000E+00  0.00000000E+00
  0.00000000E+00  0.00000000E+00  0.00000000E+00
  0.00000000E+00  0.00000000E+00  0.00000000E+00
  0.00000000E+00  0.00000000E+00  0.00000000E+00
  0.00000000E+00  0.00000000E+00  0.00000000E+00
  0.00000000E+00  0.00000000E+00  0.00000000E+00
  0.00000000E+00  0.00000000E+00  0.00000000E+00
  0.00000000E+00  0.00000000E+00  0.00000000E+00
  0.00000000E+00  0.00000000E+00  0.00000000E+00
  0.00000000E+00  0.00000000E+00  0.00000000E+00
  0.00000000E+00  0.00000000E+00  0.00000000E+00
  0.00000000E+00  0.00000000E+00  0.00000000E+00
  0.00000000E+00  0.00000000E+00  0.00000000E+00
  0.00000000E+00  0.00000000E+00  0.00000000E+00
  0.00000000E+00  0.00000000E+00  0.00000000E+00
  0.00000000E+00  0.00000000E+00  0.00000000E+00
  0.00000000E+00  0.00000000E+00  0.00000000E+00
  0.00000000E+00  0.00000000E+00  0.00000000E+00
  0.00000000E+00  0.00000000E+00  0.00000000E+00
  0.00000000E+00  0.00000000E+00  0.00000000E+00
  0.00000000E+00  0.00000000E+00  0.00000000E+00
  0.00000000E+00  0.00000000E+00  0.00000000E+00
  0.00000000E+00  0.00000000E+00  0.00000000E+00
  0.00000000E+00  0.00000000E+00  0.00000000E+00
  0.00000000E+00  0.00000000E+00  0.00000000E+00
  0.00000000E+00  0.00000000E+00  0.00000000E+00
  0.00000000E+00  0.00000000E+00  0.00000000E+00
  0.00000000E+00  0.00000000E+00  0.00000000E+00
  0.00000000E+00  0.00000000E+00  0.00000000E+00
  0.00000000E+00  0.00000000E+00  0.00000000E+00
  0.00000000E+00  0.00000000E+00  0.00000000E+00
  0.00000000E+00  0.00000000E+00  0.00000000E+00
  0.00000000E+00  0.00000000E+00  0.00000000E+00
  0.00000000E+00  0.00000000E+00  0.00000000E+00
  0.00000000E+00  0.00000000E+00  0.00000000E+00
  0.00000000E+00  0.00000000E+00  0.00000000E+00
  0.00000000E+00  0.00000000E+00  0.00000000E+00
  0.00000000E+00  0.00000000E+00  0.00000000E+00
  0.00000000E+00  0.00000000E+00  0.00000000E+00
  0.00000000E+00  0.00000000E+00  0.00000000E+00
  0.00000000E+00  0.00000000E+00  0.00000000E+00
  0.00000000E+00  0.00000000E+00  0.00000000E+00
  0.00000000E+00  0.00000000E+00  0.00000000E+00
  0.00000000E+00  0.00000000E+00  0.00000000E+00
  0.00000000E+00  0.00000000E+00  0.00000000E+00
  0.00000000E+00  0.00000000E+00  0.00000000E+00
  0.00000000E+00  0.00000000E+00  0.00000000E+00
  0.00000000E+00  0.00000000E+00  0.00000000E+00
  0.00000000E+00  0.00000000E+00  0.00000000E+00
  0.00000000E+00  0.00000000E+00  0.00000000E+00
  0.00000000E+00  0.00000000E+00  0.00000000E+00
  0.00000000E+00  0.00000000E+00  0.00000000E+00
  0.00000000E+00  0.00000000E+00  0.00000000E+00
  0.00000000E+00  0.00000000E+00  0.00000000E+00
  0.00000000E+00  0.00000000E+00  0.00000000E+00
  0.00000000E+00  0.00000000E+00  0.00000000E+00
  0.00000000E+00  0.00000000E+00  0.00000000E+00
  0.00000000E+00  0.00000000E+00  0.00000000E+00
  0.00000000E+00  0.00000000E+00  0.00000000E+00
  0.00000000E+00  0.00000000E+00  0.00000000E+00
  0.00000000E+00  0.00000000E+00  0.00000000E+00
  0.00000000E+00  0.00000000E+00  0.00000000E+00
  0.00000000E+00  0.00000000E+00  0.00000000E+00
  0.00000000E+00  0.00000000E+00  0.00000000E+00
  0.00000000E+00  0.00000000E+00  0.00000000E+00
  0.00000000E+00  0.00000000E+00  0.00000000E+00
  0.00000000E+00  0.00000000E+00  0.00000000E+00
  0.00000000E+00  0.00000000E+00  0.00000000E+00
  0.00000000E+00  0.00000000E+00  0.00000000E+00
  0.00000000E+00  0.00000000E+00  0.00000000E+00
  0.00000000E+00  0.00000000E+00  0.00000000E+00
  0.00000000E+00  0.00000000E+00  0.00000000E+00
  0.00000000E+00  0.00000000E+00  0.00000000E+00
  0.00000000E+00  0.00000000E+00  0.00000000E+00
  0.00000000E+00  0.00000000E+00  0.00000000E+00
  0.00000000E+00  0.00000000E+00  0.00000000E+00
  0.00000000E+00  0.00000000E+00  0.00000000E+00
  0.00000000E+00  0.00000000E+00  0.00000000E+00
  0.00000000E+00  0.00000000E+00  0.00000000E+00
  0.00000000E+00  0.00000000E+00  0.00000000E+00
  0.00000000E+00  0.00000000E+00  0.00000000E+00
  0.00000000E+00  0.00000000E+00  0.00000000E+00
  0.00000000E+00  0.00000000E+00  0.00000000E+00
  0.00000000E+00  0.00000000E+00  0.00000000E+00
  0.00000000E+00  0.00000000E+00  0.00000000E+00
  0.00000000E+00  0.00000000E+00  0.00000000E+00
  0.00000000E+00  0.00000000E+00  0.00000000E+00
  0.00000000E+00  0.00000000E+00  0.00000000E+00
  0.00000000E+00  0.00000000E+00  0.00000000E+00
  0.00000000E+00  0.00000000E+00  0.00000000E+00
  0.00000000E+00  0.00000000E+00  0.00000000E+00
  0.00000000E+00  0.00000000E+00  0.00000000E+00
  0.00000000E+00  0.00000000E+00  0.00000000E+00
  0.00000000E+00  0.00000000E+00  0.00000000E+00
  0.00000000E+00  0.00000000E+00  0.00000000E+00
  0.00000000E+00  0.00000000E+00  0.00000000E+00
  0.00000000E+00  0.00000000E+00  0.00000000E+00
  0.00000000E+00  0.00000000E+00  0.00000000E+00
  0.00000000E+00  0.00000000E+00  0.00000000E+00
  0.00000000E+00  0.00000000E+00  0.00000000E+00
  0.00000000E+00  0.00000000E+00  0.00000000E+00
  0.00000000E+00  0.00000000E+00  0.00000000E+00
  0.00000000E+00  0.00000000E+00  0.00000000E+00
  0.00000000E+00  0.00000000E+00  0.00000000E+00
  0.00000000E+00  0.00000000E+00  0.00000000E+00
  0.00000000E+00  0.00000000E+00  0.00000000E+00
  0.00000000E+00  0.00000000E+00  0.00000000E+00
  0.00000000E+00  0.00000000E+00  0.00000000E+00
  0.00000000E+00  0.00000000E+00  0.00000000E+00
  0.00000000E+00  0.00000000E+00  0.00000000E+00
  0.00000000E+00  0.00000000E+00  0.00000000E+00
  0.00000000E+00  0.00000000E+00  0.00000000E+00
  0.00000000E+00  0.00000000E+00  0.00000000E+00
  0.00000000E+00  0.00000000E+00  0.00000000E+00
  0.00000000E+00  0.00000000E+00  0.00000000E+00
  0.00000000E+00  0.00000000E+00  0.00000000E+00
  0.00000000E+00  0.00000000E+00  0.00000000E+00
  0.00000000E+00  0.00000000E+00  0.00000000E+00
  0.00000000E+00  0.00000000E+00  0.00000000E+00
  0.00000000E+00  0.00000000E+00  0.00000000E+00
  0.00000000E+00  0.00000000E+00  0.00000000E+00
  0.00000000E+00  0.00000000E+00  0.00000000E+00
  0.00000000E+00  0.00000000E+00  0.00000000E+00
  0.00000000E+00  0.00000000E+00  0.00000000E+00
  0.00000000E+00  0.00000000E+00  0.00000000E+00
  0.00000000E+00  0.00000000E+00  0.00000000E+00
  0.00000000E+00  0.00000000E+00  0.00000000E+00
  0.00000000E+00  0.00000000E+00  0.00000000E+00
  0.00000000E+00  0.00000000E+00  0.00000000E+00
  0.00000000E+00  0.00000000E+00  0.00000000E+00
  0.00000000E+00  0.00000000E+00  0.00000000E+00
  0.00000000E+00  0.00000000E+00  0.00000000E+00
  0.00000000E+00  0.00000000E+00  0.00000000E+00
  0.00000000E+00  0.00000000E+00  0.00000000E+00
  0.00000000E+00  0.00000000E+00  0.00000000E+00
  0.00000000E+00  0.00000000E+00  0.00000000E+00
  0.00000000E+00  0.00000000E+00  0.00000000E+00
  0.00000000E+00  0.00000000E+00  0.00000000E+00
  0.00000000E+00  0.00000000E+00  0.00000000E+00
  0.00000000E+00  0.00000000E+00  0.00000000E+00
  0.00000000E+00  0.00000000E+00  0.00000000E+00
  0.00000000E+00  0.00000000E+00  0.00000000E+00
  0.00000000E+00  0.00000000E+00  0.00000000E+00
  0.00000000E+00  0.00000000E+00  0.00000000E+00
  0.00000000E+00  0.00000000E+00  0.00000000E+00
  0.00000000E+00  0.00000000E+00  0.00000000E+00
  0.00000000E+00  0.00000000E+00  0.00000000E+00
  0.00000000E+00  0.00000000E+00  0.00000000E+00
  0.00000000E+00  0.00000000E+00  0.00000000E+00
  0.00000000E+00  0.00000000E+00  0.00000000E+00
  0.00000000E+00  0.00000000E+00  0.00000000E+00
  0.00000000E+00  0.00000000E+00  0.00000000E+00
  0.00000000E+00  0.00000000E+00  0.00000000E+00
  0.00000000E+00  0.00000000E+00  0.00000000E+00
  0.00000000E+00  0.00000000E+00  0.00000000E+00
  0.00000000E+00  0.00000000E+00  0.00000000E+00
  0.00000000E+00  0.00000000E+00  0.00000000E+00
  0.00000000E+00  0.00000000E+00  0.00000000E+00
  0.00000000E+00  0.00000000E+00  0.00000000E+00
  0.00000000E+00  0.00000000E+00  0.00000000E+00
  0.00000000E+00  0.00000000E+00  0.00000000E+00
  0.00000000E+00  0.00000000E+00  0.00000000E+00
  0.00000000E+00  0.00000000E+00  0.00000000E+00
  0.00000000E+00  0.00000000E+00  0.00000000E+00
  0.00000000E+00  0.00000000E+00  0.00000000E+00
  0.00000000E+00  0.00000000E+00  0.00000000E+00
  0.00000000E+00  0.00000000E+00  0.00000000E+00
  0.00000000E+00  0.00000000E+00  0.00000000E+00
  0.00000000E+00  0.00000000E+00  0.00000000E+00
  0.00000000E+00  0.00000000E+00  0.00000000E+00
  0.00000000E+00  0.00000000E+00  0.00000000E+00
  0.00000000E+00  0.00000000E+00  0.00000000E+00
  0.00000000E+00  0.00000000E+00  0.00000000E+00
  0.00000000E+00  0.00000000E+00  0.00000000E+00
  0.00000000E+00  0.00000000E+00  0.00000000E+00
  0.00000000E+00  0.00000000E+00  0.00000000E+00
  0.00000000E+00  0.00000000E+00  0.00000000E+00
  0.00000000E+00  0.00000000E+00  0.00000000E+00
  0.00000000E+00  0.00000000E+00  0.00000000E+00
  0.00000000E+00  0.00000000E+00  0.00000000E+00
  0.00000000E+00  0.00000000E+00  0.00000000E+00
  0.00000000E+00  0.00000000E+00  0.00000000E+00
  0.00000000E+00  0.00000000E+00  0.00000000E+00
  0.00000000E+00  0.00000000E+00  0.00000000E+00
  0.00000000E+00  0.00000000E+00  0.00000000E+00
  0.00000000E+00  0.00000000E+00  0.00000000E+00
  0.00000000E+00  0.00000000E+00  0.00000000E+00
  0.00000000E+00  0.00000000E+00  0.00000000E+00
  0.00000000E+00  0.00000000E+00  0.00000000E+00
  0.00000000E+00  0.00000000E+00  0.00000000E+00
  0.00000000E+00  0.00000000E+00  0.00000000E+00
