 C  N Fe  O  H 
 1.0000000000000000
    12.4758271799999996    0.0000000000000000    0.0000000000000000
     0.0000000000000000   12.7377722799999997    0.0000000000000000
     0.0000000000000000    0.0000000000000000   30.0000000000000000
 C   N   Fe  O   H  
  54   4   1  46  92
Cartesian
  1.1507573368541075  1.9190716779762163  2.9925678235809090
  2.4040924055862192  2.6198578978172677  2.9878181868259452
  2.3954608190748647  4.0361960013531641  2.9944593585451886
  1.1502674963818933  4.7401085767714228  2.9976052691035506
  3.6614119137967513  1.9258257307683806  2.9897029118542648
  4.9083961861233201  2.6442641015952661  3.0217231365887378
  4.8941597576368538  4.0734725079238450  3.0255734398993939
  3.6314979116951815  4.7467265804200878  3.0050632739473819
  6.1594040474578984  1.9328515480415782  3.0558390313108115
  7.3866005895627227  2.6882432785910533  3.0846145702109862
  7.3862377496749492  4.1441564108763584  3.0936171137196919
  6.1146157078205867  4.8505492649236874  3.0697622475110697
  8.6148045291554034  1.9322603518462058  3.0843533794792970
  9.8667028406172523  2.6435021274173667  3.0671123987251119
  9.8796664648516810  4.0737514077013506  3.0585397896273121
  8.6571271671587748  4.8511596594211577  3.0821561521763949
 11.1153506522300258  1.9255007819033898  3.0395801990290203
 12.3734441705383791  2.6194779709163569  3.0161116705807816
 12.3810865636639615  4.0367003147597016  3.0141461090802482
 11.1441967214253292  4.7474457963293268  3.0268211072837352
  1.1493244429286011  6.1572544903551405  2.9902556617824492
  2.3738817344117717  6.8750377857595666  2.9934300230455277
  2.3737403673895767  8.2925125964090221  2.9919666174480648
  1.1492817785133898  9.0110168718949879  2.9836085042026368
  3.6073654754488240  6.1668728111538709  3.0080613608424835
  4.8227976843598244  6.8714600197266185  3.0426723949275822
  4.8243436143256284  8.2959678686438494  3.0493138672857047
  3.6080711611440197  9.0005798471560770  3.0111118509732577
  9.9506020135220030  6.8731250056933861  3.0368084230796124
  9.9496689187284684  8.2959300216861305  3.0485596309624050
 11.1666015869210256  6.1683498336319449  3.0070839621638936
 12.4009005175286777  6.8758217881734058  2.9906136335097098
 12.4002070033527918  8.2934124925264232  2.9887019856556005
 11.1666624962955510  9.0010446813121678  3.0108707110052966
  1.1495580622751671 10.4272020761798565  2.9838101962096157
  2.3956682554679318 11.1305299343156783  2.9830979168273180
  1.1506225555319860  0.5083425210621267  2.9852510177189906
  3.6325793238700981 10.4208912918121364  3.0037425118701782
  4.8964915116794989 11.0933011527858039  3.0231134697429769
  4.9093882406967513 12.5213952303146012  3.0104040381513917
  3.6626770076022264  0.5009391029113155  2.9803727731431549
  6.1170175973932288 10.3162435940268136  3.0781061259256766
  7.3874645481295662 11.0214353196859545  3.0953856698502249
  7.3869545290144663 12.4754866733376240  3.0800920808722947
  6.1596144758950473  0.4929724110236616  3.0507598005656762
  8.6579361798933263 10.3154637505807276  3.0915194573363385
  9.8794456420123087 11.0918265527108257  3.0500241605109633
  9.8662070722023305 12.5199668046047652  3.0552457691673354
  8.6151465540883212  0.4922451396859456  3.0792208372662828
 11.1431300938592326 10.4202031157208044  3.0183209655063399
 12.3800976497095014 11.1295440070495193  2.9975476940555494
 11.1145836018880964  0.4997863043068828  3.0325899860720158
  2.4045641784145149 12.5463926715067036  2.9745235300364099
 12.3729209093275667 12.5453116663006163  3.0033500691417419
  6.0492535712798414  6.2303396569067875  3.0883913118029600
  6.0515875721416554  8.9351916018151805  3.1061020780097031
  8.7219218665935081  6.2324545426248621  3.0924627547767689
  8.7219353688724457  8.9346174996537204  3.1149214140311221
  7.3841733681421440  7.5808894384523082  3.2820650103162339
  7.3446977900327219  7.4590973601382631  5.4354542223186852
  0.6591159021753183  1.4085311004512302  6.6223727159327348
  1.1156677097105949  0.4009040258309918  9.1763452346150576
  9.7450423630401559  6.0824353049425186  6.0926654109600680
  9.7479985056570566 11.8919337653313555 10.3503678008514743
  7.5800325834689772 10.5984543274295344  6.9302064595835970
  8.4551730252749060  5.4186734889302555 16.1332400394728204
  0.9694968157508066  6.1568482367539907 12.9909618017690143
  2.2454150373914947  3.5839196486846596  6.8981190525586387
 12.3089598937148228  8.3995332217512129 14.3409931111318762
  7.8196477429219051  7.9793608852387772  8.7031857411973004
  3.3047978202566970  0.3453414240338171  6.1102497289543605
  2.9287455459909375 10.4964307910370938  6.9308429857025660
  5.5035012999477422  6.5568815854246916  9.4327916049045566
  2.4758404695045022  9.6047064783586524 14.3510828312685934
  5.1079466225897354  2.4995168774985856 13.8329322241908130
 11.2664574504338155  9.7566137778967104 11.6426351784077315
  0.5632279724182818  4.3739481988688649  9.6940236759353304
 10.2641370303847577  1.6806122935874581  6.6341917686979448
  5.6901482966092400 10.1568783999010215 12.1235661740250258
 11.5778953805758036  7.7523403984458685  9.5945876076401557
  9.7529116926100361  5.8009574236153423  8.8182967150036795
  5.0421209486127623  3.0462438331020008  9.4581823003887813
  9.9348224932048819 11.8853357773243307  7.5922490855549043
  6.8196265253234989  8.9325068388726159 14.4301972593717291
  5.1387606418359004 11.4852171264835459  8.5745617127489311
  1.6867698491541028 10.1533078951979956 11.6976320218643988
  4.8349055024598124  3.1808969069863311  6.6620910084211182
  4.4460007226157146  7.2922339563663021 13.9598178134188604
 12.2774319895422082 10.6588782123120129  6.7823928309682922
  6.9036771357453803  1.9861930563622756 11.5924922364618208
 10.6295596930145599  3.1920404368648536  9.0240605043151909
  4.2724528971045173 12.3606595714780703 14.0636723773116668
 11.1885564873225789  4.6604019571600617 12.0484961635355567
 12.1276040484718131  7.8185689413057151  6.8325721796934022
  7.8317965608756595  8.5801336415440126 11.4951211321707412
  6.2630854620738141  5.1124774120094321 14.4086118063450694
  1.6772395736160584  7.4985278450662944 10.6404425977734114
  9.6822231307779774  1.9516465133305994 11.2791443406378100
  4.8482484101771952  6.1484147134167477  6.7199450432564127
  2.4472987496237133  2.5125535610886831 10.5413644548880647
 10.6358941727589542  7.1444864311108010 16.1458620632462413
  7.1127092533129668  5.8784711486183143 11.8011394490498986
  1.9892732300273408  6.3320753281048461  7.7341257038145450
  3.6071881297149533 12.1416204544455919 11.2358615145870875
  3.2451857637511763  4.3085679858035739 12.7527471964631207
  8.1141319429136427  6.8909528439791456  5.6950645992567646
  6.5313309056552811  7.0108065352641580  5.7645211782996499
  0.6705586712166482  1.0319942490757115  7.5388575982252837
 12.1859959185768822  1.4544768918325275  6.3686330144515582
  1.4942632377970775  1.1297572735422714  9.7280424453862917
  0.4349360749030633 12.7037253389763301  9.7174213569816921
  9.9158109955755869  5.2808708234406927  5.5658502356392505
  9.7681735105140923  5.8263445311558542  7.0557930991312574
  9.8333650002379098 11.8731358337774342  9.3497348618306066
  8.8140668053140114 11.6655155249855458 10.5151078684616124
  6.8497074664717923 10.8624579488080855  7.5308010439358011
  7.6112505631330745  9.6220951022290269  6.9869990394198203
  7.6853645035875457  5.3259037891203640 15.5110359490973160
  8.7396148711921136  4.5073992970587717 16.3163272311018268
  0.1742218708702561  5.5883740522792884 12.8550035386206396
  0.6363318013369944  6.9204722717625646 13.5272735333848200
  1.8994451663108434  4.4970730830779235  6.9437018708366445
  1.5146772816565905  2.9394229143311250  6.7153257644949997
 11.7704290318575069  8.8681277852561884 13.6716463107602504
 11.6652718484709190  8.0028665384431736 14.9869696427760548
  8.4011142597340491  7.1886409519863266  8.6595268530724052
  8.0020835264690948  8.3527540120657449  9.5951650611470161
  3.7276175823286257  0.6913939997253603  6.9170057536400380
  2.4011847631349679  0.7358214196170288  6.0964204942776243
  3.1765383391571973  9.8463403638771698  6.2496040381230396
  3.0652977379035264 11.3866290386488398  6.4996432978980021
  6.2412363369743424  7.1553032443111677  9.1353510050742219
  5.8775824555290690  6.1687826370127796 10.2531254426557883
  1.6090761325478184  9.2259387165225437 14.6251938063389879
  3.1047331954511983  8.8520787800844527 14.3833897144284713
  4.3130735060339358  3.0190900360452715 13.5531971068196597
  4.7810845283360148  1.6315191519566790 14.1565916025918099
 10.7714193223016128 10.5237607605995116 11.2673099418390024
 12.2158440483214186 10.0298473913859230 11.6467485974988243
  0.9601697234095447  4.9664192185787179  9.0225001981423087
 12.2957530952518006  3.8865958880468172  9.2520360036836120
  9.7541025157977206  1.8716828896755529  5.8266336782903343
 10.0317823411068030  0.7424330540769674  6.9015738271598206
  5.2561723929538662 10.9055612936071338 11.6734155154193839
  5.7952620078224095 10.4316653786397193 13.0558712069753131
  0.0229304837844827  7.5786562226756091  9.9216047031508765
 11.2662038344933340  8.4676421000740287 10.2009039842853131
 10.4645309463233893  6.3726428486303233  9.2056480232511060
 10.0007979554248596  4.8564949023271335  8.9988317149330612
  5.0871356237392735  2.9317244635361619  8.4728950896159319
  5.1883822689662233  4.0031258243207013  9.5839675126356010
  9.1338623698149206 11.3707674648000037  7.2823488423971767
 10.7535447490535194 11.4063439096472923  7.2826016446905655
  6.9965415372609661  8.8128855963536825 15.3784405427936175
  6.0297443754314335  8.3702162579028787 14.2498611242559985
  4.7566853743769730 11.7180374182191986  9.4444526229356587
  4.4147156814386932 10.9980541316347402  8.1174399395788743
  1.8431556883780751  9.3028823274659533 11.2200600618709867
  1.9917766923847235  9.9669918490342813 12.6271444887737534
  5.0741778994363536  2.6396532816217526  5.8884789618945890
  3.8321187020434584  3.2689725908928984  6.6362121006086241
  4.8536551499165919  6.4451607138416733 14.2668514099971215
  4.2481266178899331  7.1256941967306613 13.0203107989599243
 12.2212694036362493  9.6842633505402596  6.6475581834619666
  0.7497838269937479 10.8225091698166800  6.9603601381795723
  6.3477494157237446  2.2218955700186025 10.8204526082821744
  6.3266040075157228  2.1363257350255505 12.3790626104857946
 10.4235660057696524  2.6742689951321057  8.2085638061784554
 10.2381473532781335  2.7014757475945546  9.8036115430902484
  3.6946725092247577 11.7132480739965192 14.5115492772175845
  3.9922149657911912 12.3181342726844125 13.1202121853644922
 11.6849288991060920  4.6599884524534492 11.2030220001497565
 10.8586144932035005  3.7439294970734429 12.1374437381514966
 11.4318865290947986  7.3302824705971190  6.3407418954232284
 11.8013591948746548  7.8627505759066372  7.7673523069976715
  8.4686909434835087  8.7958279887149295 12.1998438078340907
  7.0427232649005438  9.1626524234201998 11.6876539688519827
  5.9351569947401188  4.1841329844949788 14.3876773132665168
  6.5885262339964630  5.2962176247623844 13.4908565770733055
  1.5379252975346995  6.8818458341412665 11.4093520846660077
  2.2149599855549935  7.0491699273336996  9.9595096431696444
  9.8058610435756144  0.9940362031438605 11.0833471850438183
  8.7042916737837661  2.0348457823424395 11.4388626992850355
  5.1066016038111171  6.1648620642008742  7.6738101314217655
  4.9111336064754090  5.1960686439818922  6.4821222209722293
  1.8088972524045226  3.1875907893370119 10.1797760006617999
  3.3037569876117443  2.6884598860722533 10.0740995894428469
  9.8538207550880212  6.5465044194529698 16.0155994929962908
 10.5376500493829770  7.4939437462022234 17.0462970031926240
  7.3959420260419320  6.8337434019623355 11.7738757185952654
  7.8898285346398644  5.3792556674105416 11.4887738934086041
  2.8744076391651459  6.4437415282874646  7.3147217268445779
  1.3543945195544758  6.9215674727342940  7.2621096394793474
  3.2019641820996854  0.2493302100267824 10.9659094258710006
  2.8672737845357239 11.4753068004254750 11.2499203362758440
  2.8362266120350759  3.7414756082369447 12.0619575846969163
  2.5213566240281953  4.8890402931344186 13.0762325444579002
