 C  N Ni  O  H                          
   1.00000000000000     
    12.4553732999999998    0.0000000000000000    0.0000000000000000
     0.0000000000000000   12.7322628600000005    0.0000000000000000
     0.0000000000000000    0.0000000000000000   30.0000000000000000
   C    N    Ni   O    H 
    54     4     1    46    90
Direct
  0.9411535510066668  0.1353736596636574  0.1072232004962054
  0.0415283695110982  0.1901807575248092  0.1066657110226113
  0.0407942074516030  0.3014663052789631  0.1060210101785428
  0.9411008564275362  0.3566215938576918  0.1052301403029765
  0.1421220297170128  0.1354990409069603  0.1066232046063967
  0.2421061723207514  0.1914361581618193  0.1073759490680762
  0.2408332321391279  0.3035543768241445  0.1076604107727461
  0.1401038848863281  0.3569598074623263  0.1062921842774291
  0.3423128992545697  0.1361209617017180  0.1083547581709577
  0.4410788312544265  0.1952565288069939  0.1092928931198627
  0.4410036850450856  0.3094330856451675  0.1099718884077029
  0.3385376211343340  0.3642353358854140  0.1099041900185216
  0.5398828921265429  0.1362643866047257  0.1089893838227141
  0.6400687975290055  0.1917269719262328  0.1083730236192985
  0.6412113554581881  0.3039287203944674  0.1075519527846989
  0.5433040642005338  0.3645998266929262  0.1086627715156572
  0.7402035493424521  0.1358631360348533  0.1080857475774834
  0.8408120381250344  0.1903884961260012  0.1073159897544212
  0.8413454964848353  0.3016544504523861  0.1060861969678207
  0.7419980071860122  0.3572361376445844  0.1058112218242192
  0.9410668480231246  0.4680904334042807  0.1039331313039333
  0.0396493540460609  0.5239923020903511  0.1039623710998148
  0.0398146481288774  0.6353054953349022  0.1039349288593696
  0.9413616617885685  0.6912180038172081  0.1041214058232196
  0.1385686757224887  0.4683479760059793  0.1054320188390505
  0.2370705559126368  0.5229116138906998  0.1074932046748057
  0.2373311315836210  0.6362156960352624  0.1067145953470217
  0.1388295562593214  0.6908226035605705  0.1049606989835616
  0.6448989329787296  0.5231967640275763  0.1048844931464143
  0.6451217579904999  0.6366103960791442  0.1048911575540548
  0.7434865876176832  0.4685879207972650  0.1041605228264885
  0.8425790296737129  0.5239965223366464  0.1033991085754023
  0.8428285518153887  0.6353337960600133  0.1035898140467345
  0.7438847942317917  0.6909326298349719  0.1043808883493862
  0.9413890401656664  0.8027378642986426  0.1053878366230767
  0.0411428278245626  0.8578628686827837  0.1057462573465130
  0.9412825417125162  0.0243179056173423  0.1072576581499286
  0.1404705150823357  0.8022178341280832  0.1056481003256844
  0.2412424847182375  0.8555512847417526  0.1067841512907817
  0.2423463210611050  0.9677043677588114  0.1068123117956038
  0.1422944691680876  0.0237339377246629  0.1063749012494668
  0.3391683925698424  0.7948805008203376  0.1082726275200163
  0.4412407139041765  0.8500951852943609  0.1086628239339673
  0.4411718289584721  0.9640415783620653  0.1085837511112291
  0.3424679229793496  0.0229545484560573  0.1079765368945062
  0.5436414042716100  0.7953304034741097  0.1080609061614780
  0.6415077471208834  0.8560542774851224  0.1074647108742942
  0.6401649590755087  0.9681356460256786  0.1082860002530718
  0.5398280590588647  0.0231851644240386  0.1087667678665405
  0.7422746661939419  0.8024030683886253  0.1060132552127991
  0.8417003165999232  0.8579856331220578  0.1063882885411120
  0.7402238337912802  0.0240469289249646  0.1081644518677043
  0.0416987438764862  0.9692074240219499  0.1064146932923695
  0.8408722923827999  0.9693339379901860  0.1075257952536168
  0.3329846417170082  0.4717856430752752  0.1112881808610226
  0.3336482733431315  0.6871461367494718  0.1088244231354694
  0.5486981582818545  0.4722118039498910  0.1076200680848878
  0.5493691673309865  0.6881131808748958  0.1073023629580710
  0.4424235703017371  0.5799221729890601  0.1272735175188315
  0.8999197535641591  0.7867189512150475  0.4164439712088460
  0.5066456771726753  0.2966685024420817  0.3185825815059543
  0.2948285366811106  0.3442835232164990  0.2757778896207987
  0.8570521560782259  0.2197906233956932  0.2275295798597140
  0.0105239152506383  0.9120375418048121  0.2228446366377027
  0.8060044591895633  0.7331008325694668  0.3363216773053473
  0.6680729215679225  0.4583449857015058  0.4621785162297902
  0.9246914706553805  0.4651171547699182  0.4952241665967670
  0.9641767590239201  0.1250765472766475  0.5944933210945499
  0.3192176455811939  0.7289741929998791  0.3872771877654144
  0.9575234219765222  0.5634748473153766  0.4126502493604506
  0.7370340742054875  0.8246935323218041  0.2205263275861516
  0.8683123416564952  0.6608233072417397  0.2528788481874707
  0.0913868133664511  0.4376318643117486  0.3067287558813973
  0.4495693060949895  0.5372729363995171  0.4521869494092760
  0.8915694648808213  0.3992177794448116  0.3515551049817296
  0.0540154632393221  0.9503746053535970  0.4220858166797550
  0.2327933642822657  0.8397010710229884  0.4590765352652831
  0.7013498106909347  0.0635611523023250  0.2305283442660984
  0.4688612659581939  0.6536445499981098  0.3213584343271255
  0.4403187922468754  0.9372695064164764  0.2232764152620057
  0.8459172533048731  0.1831888632943413  0.3587288532192930
  0.6527687037764860  0.5679239879516678  0.3508432585470587
  0.1785686519078448  0.0404298221567349  0.2098582777178914
  0.7050094199719512  0.3910319966584125  0.2945230575644542
  0.1952394137173576  0.8215682337768566  0.3204075720709543
  0.5727304466496859  0.8196298257869323  0.2803682528337327
  0.5197823478412903  0.3624848304923088  0.4040185044148137
  0.0744344511694374  0.6969803819240635  0.2162741473159764
  0.7298554568946564  0.9432210339117483  0.4378012656304631
  0.9614156574267351  0.0838362610091691  0.2861220696603464
  0.8870757133023879  0.0959300325975590  0.4437835974273637
  0.6613603277785374  0.2736461037632700  0.5075934396434687
  0.3498484165621192  0.5428094008956931  0.2566814365109263
  0.2902019149721644  0.7765972105692577  0.2383649342204471
  0.1384485545008264  0.2536532186585155  0.2124539073259489
  0.1328378235982300  0.6212876500699450  0.3576992401745561
  0.6822018489167637  0.9207712500213640  0.3470567419611240
  0.0237460335303346  0.4544378449870851  0.2173446083416399
  0.7860759555411508  0.4702920224098355  0.2159479314300980
  0.5681580480134598  0.1490695886500448  0.4316004478837904
  0.6480878872109651  0.1262611173612384  0.3207092642813546
  0.3887113992375804  0.1643475944126259  0.2249253207160314
  0.1338098749176982  0.0349623392471471  0.3380182506214585
  0.8856107902756833  0.2472488668795096  0.5171882669973979
  0.4603871009740541  0.5897269212636203  0.1852967016693659
  0.8395382297008945  0.8217358855095331  0.4313462980430937
  0.8727639081467730  0.7714847446908215  0.3859833194425648
  0.5047819573869866  0.3259221612555865  0.3495828290054377
  0.4347819785770195  0.3082546881123495  0.3060062948453762
  0.3179807266490071  0.4176089353585332  0.2667584639880906
  0.2306735542547620  0.3579258083084486  0.2940570339025260
  0.8009093654578557  0.1645508073707365  0.2244215796480395
  0.8218359730709895  0.2738962329725143  0.2453690433595107
  0.9666866115725055  0.9263222168855673  0.1966917420412221
  0.0775296959434104  0.9547636117402789  0.2183029985805718
  0.8387229327772242  0.7092236383568680  0.3078938043338920
  0.7683385026254996  0.7993448201077645  0.3300670400007597
  0.6645685703463825  0.3935773553331745  0.4813110938003622
  0.7403145322674276  0.4854708334994863  0.4670660592353323
  0.9530143930096985  0.4965849112462794  0.4674742759183277
  0.9611262957182778  0.5016269112808219  0.5193714923308210
  0.9395591911140292  0.1746093271347084  0.5715832629855521
 -0.0062707830285528  0.1690147342472134  0.6179919831448148
  0.2851451262060092  0.7748396327999603  0.3645599290815595
  0.3022910831157121  0.7650246243486439  0.4157338555210796
  0.9250740955136960  0.6319197297594488  0.4198639193808208
  0.0235126067617844  0.5832210326808152  0.3962372705407436
  0.7075441200433740  0.8114217215984099  0.1909992787229011
  0.6752819170517790  0.8129399145112269  0.2414523369172202
  0.9450361939030935  0.6641104304328341  0.2445727329947676
  0.8328003036458842  0.7196912869154933  0.2371485713725955
  0.1141678022928478  0.5030553925116299  0.3218596278520739
  0.0238327068335325  0.4182642118112965  0.3219825931876265
  0.4405566650297523  0.6016479145289171  0.4350679701680947
  0.5260655456696319  0.5346132233791245  0.4605335259646277
  0.8252290934705245  0.4108878648002205  0.3344364585611509
  0.8954646849456329  0.4546003815433432  0.3745799988272263
  0.0045600195846116  0.8906880809265105  0.4164308467870528
  0.0780836212807641  0.9762070164905006  0.3928131964569194
  0.2608659549309784  0.8737033258308459  0.4856202359154169
  0.1716362516362180  0.8832735941381170  0.4490625249916946
  0.6794213768710262  0.0780533792122141  0.2615648634400198
  0.7200758610931502  0.9888551610992123  0.2294490065958665
  0.5342785787433160  0.6181071512365877  0.3340071463209183
  0.4266934862775020  0.6784539861351218  0.3470680539759854
  0.4398146490235254  0.0131463002770276  0.2285245125385049
  0.4912978785574438  0.9072106593417374  0.2451108051599074
  0.8689370365606677  0.2576809690793104  0.3583157308377102
  0.8893832645384113  0.1459418033060164  0.3362939177882074
  0.6719364289003056  0.5107244448620134  0.3301807497640928
  0.7076328163063380  0.6229796564538007  0.3466101110576333
  0.1582907531789794  0.1156291844584905  0.2116027897755700
  0.2545362188875207  0.0390567161106245  0.2175759024638635
  0.7186573151073203  0.4177872013210980  0.2639054936409958
  0.6322745307099573  0.3601160049509388  0.2959546521162505
  0.1761960380364924  0.8964113361561392  0.3227055814829567
  0.2297461871696147  0.8111887441937460  0.2909190230652705
  0.6019795669402982  0.8534758814100192  0.3075877240478110
  0.5317527864911821  0.7580588087392992  0.2919565822831953
  0.4697418054030645  0.4142830781334118  0.4172593380154093
  0.5893967089096868  0.3930691441363133  0.4130046644478642
  0.0541390542471061  0.7721673887988411  0.2164602518049793
  0.1498572737899871  0.6999838819586891  0.2254618994924101
  0.6697068704694759  0.9605440107668939  0.4571904173322954
  0.7827514668249266  0.0015518520425856  0.4420598678736037
  0.9395333726649230  0.1386739897097838  0.2642895825225308
  0.9593621167670831  0.0177360327617019  0.2691552315694764
  0.8767611248085718  0.1311307079639825  0.4146559065423784
  0.9523436654587777  0.0524215198186837  0.4399951560243666
  0.6410322477425560  0.2203128166279369  0.4855995635551139
  0.7375183441753379  0.2589499734371827  0.5147459506261712
  0.3936485243086247  0.5520130936044007  0.2284121739015890
  0.3946088188699113  0.5721396675043205  0.2809877817855283
  0.3386764274163983  0.8352162045796289  0.2300468320001302
  0.3349349554572341  0.7137977707862545  0.2410949481035156
  0.1906081236579031  0.2905512238899453  0.2313261322715855
  0.0803912670054403  0.3045332235048513  0.2083632097279071
  0.1239582357821292  0.6877665919569322  0.3413802294473721
  0.2004909017649461  0.6348514480592562  0.3739913323419938
  0.6917010089182222  0.9235235294539322  0.3798628923880861
  0.6670644766163721  0.9941873269822629  0.3382880427701314
  0.0437558118004314  0.5235475344201438  0.2059741932133513
  0.0474457674236379  0.4557308199117042  0.2489761001977133
  0.8565822558639511  0.4381097627625772  0.2107987401445517
  0.8073875897166682  0.5393334692350964  0.2282416983304934
  0.6035776475368733  0.1278560036615879  0.4040743105415448
  0.5369094700402064  0.2181484274118278  0.4243652531395428
  0.7120958986754303  0.1623866478895939  0.3329138278937649
  0.5892561344843432  0.1786533961189704  0.3194580844096230
  0.3584390626846214  0.2215636433772837  0.2428972015969783
  0.3999663936367571  0.1946814920484182  0.1955260242199808
  0.0789772624905829  0.0646954631525625  0.3173777535704095
  0.1907983342004820  0.0868539809382088  0.3402588115213005
  0.8985196849545832  0.1993682416724291  0.4920056052363925
  0.9098058468786869  0.3173448571263177  0.5076102305188178
 
  0.00000000E+00  0.00000000E+00  0.00000000E+00
  0.00000000E+00  0.00000000E+00  0.00000000E+00
  0.00000000E+00  0.00000000E+00  0.00000000E+00
  0.00000000E+00  0.00000000E+00  0.00000000E+00
  0.00000000E+00  0.00000000E+00  0.00000000E+00
  0.00000000E+00  0.00000000E+00  0.00000000E+00
  0.00000000E+00  0.00000000E+00  0.00000000E+00
  0.00000000E+00  0.00000000E+00  0.00000000E+00
  0.00000000E+00  0.00000000E+00  0.00000000E+00
  0.00000000E+00  0.00000000E+00  0.00000000E+00
  0.00000000E+00  0.00000000E+00  0.00000000E+00
  0.00000000E+00  0.00000000E+00  0.00000000E+00
  0.00000000E+00  0.00000000E+00  0.00000000E+00
  0.00000000E+00  0.00000000E+00  0.00000000E+00
  0.00000000E+00  0.00000000E+00  0.00000000E+00
  0.00000000E+00  0.00000000E+00  0.00000000E+00
  0.00000000E+00  0.00000000E+00  0.00000000E+00
  0.00000000E+00  0.00000000E+00  0.00000000E+00
  0.00000000E+00  0.00000000E+00  0.00000000E+00
  0.00000000E+00  0.00000000E+00  0.00000000E+00
  0.00000000E+00  0.00000000E+00  0.00000000E+00
  0.00000000E+00  0.00000000E+00  0.00000000E+00
  0.00000000E+00  0.00000000E+00  0.00000000E+00
  0.00000000E+00  0.00000000E+00  0.00000000E+00
  0.00000000E+00  0.00000000E+00  0.00000000E+00
  0.00000000E+00  0.00000000E+00  0.00000000E+00
  0.00000000E+00  0.00000000E+00  0.00000000E+00
  0.00000000E+00  0.00000000E+00  0.00000000E+00
  0.00000000E+00  0.00000000E+00  0.00000000E+00
  0.00000000E+00  0.00000000E+00  0.00000000E+00
  0.00000000E+00  0.00000000E+00  0.00000000E+00
  0.00000000E+00  0.00000000E+00  0.00000000E+00
  0.00000000E+00  0.00000000E+00  0.00000000E+00
  0.00000000E+00  0.00000000E+00  0.00000000E+00
  0.00000000E+00  0.00000000E+00  0.00000000E+00
  0.00000000E+00  0.00000000E+00  0.00000000E+00
  0.00000000E+00  0.00000000E+00  0.00000000E+00
  0.00000000E+00  0.00000000E+00  0.00000000E+00
  0.00000000E+00  0.00000000E+00  0.00000000E+00
  0.00000000E+00  0.00000000E+00  0.00000000E+00
  0.00000000E+00  0.00000000E+00  0.00000000E+00
  0.00000000E+00  0.00000000E+00  0.00000000E+00
  0.00000000E+00  0.00000000E+00  0.00000000E+00
  0.00000000E+00  0.00000000E+00  0.00000000E+00
  0.00000000E+00  0.00000000E+00  0.00000000E+00
  0.00000000E+00  0.00000000E+00  0.00000000E+00
  0.00000000E+00  0.00000000E+00  0.00000000E+00
  0.00000000E+00  0.00000000E+00  0.00000000E+00
  0.00000000E+00  0.00000000E+00  0.00000000E+00
  0.00000000E+00  0.00000000E+00  0.00000000E+00
  0.00000000E+00  0.00000000E+00  0.00000000E+00
  0.00000000E+00  0.00000000E+00  0.00000000E+00
  0.00000000E+00  0.00000000E+00  0.00000000E+00
  0.00000000E+00  0.00000000E+00  0.00000000E+00
  0.00000000E+00  0.00000000E+00  0.00000000E+00
  0.00000000E+00  0.00000000E+00  0.00000000E+00
  0.00000000E+00  0.00000000E+00  0.00000000E+00
  0.00000000E+00  0.00000000E+00  0.00000000E+00
  0.00000000E+00  0.00000000E+00  0.00000000E+00
  0.00000000E+00  0.00000000E+00  0.00000000E+00
  0.00000000E+00  0.00000000E+00  0.00000000E+00
  0.00000000E+00  0.00000000E+00  0.00000000E+00
  0.00000000E+00  0.00000000E+00  0.00000000E+00
  0.00000000E+00  0.00000000E+00  0.00000000E+00
  0.00000000E+00  0.00000000E+00  0.00000000E+00
  0.00000000E+00  0.00000000E+00  0.00000000E+00
  0.00000000E+00  0.00000000E+00  0.00000000E+00
  0.00000000E+00  0.00000000E+00  0.00000000E+00
  0.00000000E+00  0.00000000E+00  0.00000000E+00
  0.00000000E+00  0.00000000E+00  0.00000000E+00
  0.00000000E+00  0.00000000E+00  0.00000000E+00
  0.00000000E+00  0.00000000E+00  0.00000000E+00
  0.00000000E+00  0.00000000E+00  0.00000000E+00
  0.00000000E+00  0.00000000E+00  0.00000000E+00
  0.00000000E+00  0.00000000E+00  0.00000000E+00
  0.00000000E+00  0.00000000E+00  0.00000000E+00
  0.00000000E+00  0.00000000E+00  0.00000000E+00
  0.00000000E+00  0.00000000E+00  0.00000000E+00
  0.00000000E+00  0.00000000E+00  0.00000000E+00
  0.00000000E+00  0.00000000E+00  0.00000000E+00
  0.00000000E+00  0.00000000E+00  0.00000000E+00
  0.00000000E+00  0.00000000E+00  0.00000000E+00
  0.00000000E+00  0.00000000E+00  0.00000000E+00
  0.00000000E+00  0.00000000E+00  0.00000000E+00
  0.00000000E+00  0.00000000E+00  0.00000000E+00
  0.00000000E+00  0.00000000E+00  0.00000000E+00
  0.00000000E+00  0.00000000E+00  0.00000000E+00
  0.00000000E+00  0.00000000E+00  0.00000000E+00
  0.00000000E+00  0.00000000E+00  0.00000000E+00
  0.00000000E+00  0.00000000E+00  0.00000000E+00
  0.00000000E+00  0.00000000E+00  0.00000000E+00
  0.00000000E+00  0.00000000E+00  0.00000000E+00
  0.00000000E+00  0.00000000E+00  0.00000000E+00
  0.00000000E+00  0.00000000E+00  0.00000000E+00
  0.00000000E+00  0.00000000E+00  0.00000000E+00
  0.00000000E+00  0.00000000E+00  0.00000000E+00
  0.00000000E+00  0.00000000E+00  0.00000000E+00
  0.00000000E+00  0.00000000E+00  0.00000000E+00
  0.00000000E+00  0.00000000E+00  0.00000000E+00
  0.00000000E+00  0.00000000E+00  0.00000000E+00
  0.00000000E+00  0.00000000E+00  0.00000000E+00
  0.00000000E+00  0.00000000E+00  0.00000000E+00
  0.00000000E+00  0.00000000E+00  0.00000000E+00
  0.00000000E+00  0.00000000E+00  0.00000000E+00
  0.00000000E+00  0.00000000E+00  0.00000000E+00
  0.00000000E+00  0.00000000E+00  0.00000000E+00
  0.00000000E+00  0.00000000E+00  0.00000000E+00
  0.00000000E+00  0.00000000E+00  0.00000000E+00
  0.00000000E+00  0.00000000E+00  0.00000000E+00
  0.00000000E+00  0.00000000E+00  0.00000000E+00
  0.00000000E+00  0.00000000E+00  0.00000000E+00
  0.00000000E+00  0.00000000E+00  0.00000000E+00
  0.00000000E+00  0.00000000E+00  0.00000000E+00
  0.00000000E+00  0.00000000E+00  0.00000000E+00
  0.00000000E+00  0.00000000E+00  0.00000000E+00
  0.00000000E+00  0.00000000E+00  0.00000000E+00
  0.00000000E+00  0.00000000E+00  0.00000000E+00
  0.00000000E+00  0.00000000E+00  0.00000000E+00
  0.00000000E+00  0.00000000E+00  0.00000000E+00
  0.00000000E+00  0.00000000E+00  0.00000000E+00
  0.00000000E+00  0.00000000E+00  0.00000000E+00
  0.00000000E+00  0.00000000E+00  0.00000000E+00
  0.00000000E+00  0.00000000E+00  0.00000000E+00
  0.00000000E+00  0.00000000E+00  0.00000000E+00
  0.00000000E+00  0.00000000E+00  0.00000000E+00
  0.00000000E+00  0.00000000E+00  0.00000000E+00
  0.00000000E+00  0.00000000E+00  0.00000000E+00
  0.00000000E+00  0.00000000E+00  0.00000000E+00
  0.00000000E+00  0.00000000E+00  0.00000000E+00
  0.00000000E+00  0.00000000E+00  0.00000000E+00
  0.00000000E+00  0.00000000E+00  0.00000000E+00
  0.00000000E+00  0.00000000E+00  0.00000000E+00
  0.00000000E+00  0.00000000E+00  0.00000000E+00
  0.00000000E+00  0.00000000E+00  0.00000000E+00
  0.00000000E+00  0.00000000E+00  0.00000000E+00
  0.00000000E+00  0.00000000E+00  0.00000000E+00
  0.00000000E+00  0.00000000E+00  0.00000000E+00
  0.00000000E+00  0.00000000E+00  0.00000000E+00
  0.00000000E+00  0.00000000E+00  0.00000000E+00
  0.00000000E+00  0.00000000E+00  0.00000000E+00
  0.00000000E+00  0.00000000E+00  0.00000000E+00
  0.00000000E+00  0.00000000E+00  0.00000000E+00
  0.00000000E+00  0.00000000E+00  0.00000000E+00
  0.00000000E+00  0.00000000E+00  0.00000000E+00
  0.00000000E+00  0.00000000E+00  0.00000000E+00
  0.00000000E+00  0.00000000E+00  0.00000000E+00
  0.00000000E+00  0.00000000E+00  0.00000000E+00
  0.00000000E+00  0.00000000E+00  0.00000000E+00
  0.00000000E+00  0.00000000E+00  0.00000000E+00
  0.00000000E+00  0.00000000E+00  0.00000000E+00
  0.00000000E+00  0.00000000E+00  0.00000000E+00
  0.00000000E+00  0.00000000E+00  0.00000000E+00
  0.00000000E+00  0.00000000E+00  0.00000000E+00
  0.00000000E+00  0.00000000E+00  0.00000000E+00
  0.00000000E+00  0.00000000E+00  0.00000000E+00
  0.00000000E+00  0.00000000E+00  0.00000000E+00
  0.00000000E+00  0.00000000E+00  0.00000000E+00
  0.00000000E+00  0.00000000E+00  0.00000000E+00
  0.00000000E+00  0.00000000E+00  0.00000000E+00
  0.00000000E+00  0.00000000E+00  0.00000000E+00
  0.00000000E+00  0.00000000E+00  0.00000000E+00
  0.00000000E+00  0.00000000E+00  0.00000000E+00
  0.00000000E+00  0.00000000E+00  0.00000000E+00
  0.00000000E+00  0.00000000E+00  0.00000000E+00
  0.00000000E+00  0.00000000E+00  0.00000000E+00
  0.00000000E+00  0.00000000E+00  0.00000000E+00
  0.00000000E+00  0.00000000E+00  0.00000000E+00
  0.00000000E+00  0.00000000E+00  0.00000000E+00
  0.00000000E+00  0.00000000E+00  0.00000000E+00
  0.00000000E+00  0.00000000E+00  0.00000000E+00
  0.00000000E+00  0.00000000E+00  0.00000000E+00
  0.00000000E+00  0.00000000E+00  0.00000000E+00
  0.00000000E+00  0.00000000E+00  0.00000000E+00
  0.00000000E+00  0.00000000E+00  0.00000000E+00
  0.00000000E+00  0.00000000E+00  0.00000000E+00
  0.00000000E+00  0.00000000E+00  0.00000000E+00
  0.00000000E+00  0.00000000E+00  0.00000000E+00
  0.00000000E+00  0.00000000E+00  0.00000000E+00
  0.00000000E+00  0.00000000E+00  0.00000000E+00
  0.00000000E+00  0.00000000E+00  0.00000000E+00
  0.00000000E+00  0.00000000E+00  0.00000000E+00
  0.00000000E+00  0.00000000E+00  0.00000000E+00
  0.00000000E+00  0.00000000E+00  0.00000000E+00
  0.00000000E+00  0.00000000E+00  0.00000000E+00
  0.00000000E+00  0.00000000E+00  0.00000000E+00
  0.00000000E+00  0.00000000E+00  0.00000000E+00
  0.00000000E+00  0.00000000E+00  0.00000000E+00
  0.00000000E+00  0.00000000E+00  0.00000000E+00
  0.00000000E+00  0.00000000E+00  0.00000000E+00
  0.00000000E+00  0.00000000E+00  0.00000000E+00
  0.00000000E+00  0.00000000E+00  0.00000000E+00
  0.00000000E+00  0.00000000E+00  0.00000000E+00
  0.00000000E+00  0.00000000E+00  0.00000000E+00
  0.00000000E+00  0.00000000E+00  0.00000000E+00
  0.00000000E+00  0.00000000E+00  0.00000000E+00
