 C  N Mn  O  H                          
   1.00000000000000     
    12.5075085000000001    0.0000000000000000    0.0000000000000000
     0.0000000000000000   12.7423731000000000    0.0000000000000000
     0.0000000000000000    0.0000000000000000   30.0000000000000000
   C    N    Mn   O    H 
    54     4     1    46    90
Direct
  0.0591592914333273  0.1961416790723437  0.0876951985492941
  0.1598638144908037  0.2514287903805424  0.0875047012134338
  0.1593939480530012  0.3627414021417317  0.0859529265425195
  0.0592706825268605  0.4176289793260415  0.0847434737087764
  0.2605777348727944  0.1969592094354693  0.0885561514279883
  0.3607679239564629  0.2533459957527561  0.0890096637338636
  0.3599814176352130  0.3657396170410374  0.0880039154021202
  0.2586363533391001  0.4185167510367496  0.0858983167579853
  0.4606780910834437  0.1974018472999086  0.0901825607770484
  0.5591159406948915  0.2562489619452176  0.0907727418846539
  0.5592713832121187  0.3706775875362011  0.0913544196496561
  0.4581449930436100  0.4263580090099947  0.0897530806141483
  0.6575088824020282  0.1972634071425805  0.0904085490788395
  0.7575573027434284  0.2528484707706304  0.0892424177717148
  0.7588235155111548  0.3649705834916999  0.0889443773672292
  0.6610616164545338  0.4256993566075866  0.0916696870161176
  0.8576666085243383  0.1964989944138821  0.0886210987782503
  0.9584343937317307  0.2511472095286373  0.0875190023557864
  0.9592768325717534  0.3624396789999372  0.0862345474944972
  0.8599603503890842  0.4179067395400785  0.0869027549248698
  0.0592670186147206  0.5287454534943039  0.0829834272068961
  0.1577075438947935  0.5851336032818201  0.0829678102821804
  0.1571879931231061  0.6964535166748853  0.0833980897876681
  0.0586780313689115  0.7526105866869686  0.0839146798952106
  0.2568873929770095  0.5298800686143342  0.0844120520491287
  0.3547453797638048  0.5853874279741659  0.0861349235107141
  0.3539914980871910  0.6970963110081844  0.0868546372251162
  0.2559431571130997  0.7521141159786093  0.0851582090521646
  0.7636778868098427  0.5842639334945757  0.0889745893709969
  0.7632936867392743  0.6958687162107788  0.0882945049073235
  0.8614786136025667  0.5292941585594771  0.0856737952314366
  0.9604526689921634  0.5848476664082727  0.0832239553183573
  0.9601964573363564  0.6963081439415398  0.0838384199659584
  0.8610225438572793  0.7514506869386065  0.0860789006271036
  0.0586676833750125  0.8636806364614006  0.0858492839163222
  0.1585158035268565  0.9189435071309349  0.0869772930419186
  0.0588796233662476  0.0851105601635419  0.0881397324312640
  0.2577522698910102  0.8634296101350319  0.0868713570956559
  0.3588439389645045  0.9166099228666772  0.0885238805659209
  0.3603064467916521  0.0286554927148988  0.0891290283360178
  0.2602650798825730  0.0849121418165809  0.0886946943706156
  0.4565921457665397  0.8558136806203034  0.0906150084718999
  0.5586543911242670  0.9107290241761521  0.0916168627049512
  0.5588453060146716  0.0252119445300232  0.0910516669211499
  0.4604417999118496  0.0841818738955425  0.0902814972346564
  0.6598844202038507  0.8549452076704822  0.0908128069193099
  0.7580611816429610  0.9156869204723681  0.0891944108519258
  0.7572369394878592  0.0280964821989375  0.0896586778424963
  0.6573428195301984  0.0840312497151925  0.0905503519043076
  0.8594148596425900  0.8629178396282682  0.0873631795040279
  0.9586645426933351  0.9186053847402972  0.0871162896033437
  0.8575046934727604  0.0844240433088134  0.0889570536057807
  0.1595171122630952  0.0301967593194190  0.0881185519765441
  0.9582747238516780  0.0299364897502571  0.0882245297314247
  0.4530559126237196  0.5354538954324211  0.0894119279659550
  0.4510255659908538  0.7479335097026030  0.0913048066359425
  0.6664053424941659  0.5337695274790253  0.0941565714929959
  0.6650147480521814  0.7459290056756059  0.0911918232080678
  0.5571623737827144  0.6410776357194595  0.1080789369122513
  0.9654177226104388  0.5848993625819401  0.1907982330349516
  0.7958095575733675  0.5791946680139605  0.3024153398600499
  0.1807193025626619  0.0861419210546203  0.2497676975327117
  0.8514443536953539  0.0904698467253896  0.2372063502872838
  0.7503258633225030  0.5244501871597755  0.2138097853711899
  0.7023871167689680  0.6351474135079392  0.3831596221659151
  0.4223164349197059  0.8021317232889867  0.2080656833714975
  0.4417027106454468  0.4507243209163655  0.2163655894896263
  0.0512966731575481  0.3565137373153253  0.3622654030996614
  0.9511258495880077  0.8467593624695988  0.4599871486683871
  0.5570089814039180  0.1559881933436551  0.3044865403037256
  0.0953757592435762  0.7090424242040304  0.2380574815201395
  0.0326903309590882  0.3896545175370406  0.2282822352524222
  0.8964464108807449  0.2045876725509714  0.3943717494340687
  0.4136023337975867  0.4391115797367852  0.3744891376235122
  0.8233846417985762  0.7827821200635182  0.2270910921390322
  0.6157911432419549  0.4026081126912135  0.3435361115624254
  0.1547352652469277  0.9584890030390162  0.3302895175048687
  0.4182444469630384  0.7733123162244158  0.4182557828523573
  0.6372547051476064  0.3268057359158937  0.1940109960108351
  0.2629427110669806  0.5961128661523429  0.1918413169604664
  0.8941804139024944  0.3891734089319524  0.3001053207686051
  0.6239574589562553  0.8776057842631702  0.2415631031395163
  0.8521829703505716  0.8609120338057898  0.3347930653604566
  0.5191848878532151  0.5751681217183562  0.4364772602982200
  0.6926823722491391  0.3130579462763275  0.4174874305707381
  0.3720638881390316  0.0325645270108936  0.2063144951445215
  0.3191338687196053  0.0450486837614761  0.3902594459040115
  0.5464782607136101  0.5944062379875302  0.2858951087391942
  0.4039907952771591  0.3147853805954058  0.2912632734473418
  0.3282769837606005  0.8072958176041752  0.2987722431172423
  0.6111882976732237  0.0885268422455642  0.2186218177958910
  0.2939765544930116  0.6410546037913204  0.3631038040416160
  0.0341233707032166  0.1950721321123115  0.1996324183086864
  0.3484379806868730  0.2626345675086730  0.4256520447353381
  0.7828195734154527  0.1999166020369972  0.3128929612080392
  0.0851688875130585  0.5728482669407884  0.3835310980201599
  0.4688861906659471  0.9608040961359339  0.3364075656159109
  0.9861056880586493  0.6834295493979816  0.3161830388813505
  0.2196515413602253  0.2186735907927804  0.3225478453511605
  0.9707783636813165  0.9962507629340908  0.3898619976050242
  0.5671234128520137  0.3984828939503019  0.4888032651098333
  0.0387455201116385  0.9114300681730008  0.2124987110083638
  0.6402883007541109  0.8267085601795278  0.3406101627636867
  0.9124856081917092  0.6356081955799131  0.4332520251614921
  0.5444072072231867  0.6492032492120907  0.1619517398501864
  0.0146124903337106  0.6337134672476539  0.2076472049424411
  0.9808944881063674  0.5968382325948284  0.1594416359386266
  0.7489353121502441  0.5899320210708552  0.3286667066679363
  0.7515268546167186  0.5720870937801469  0.2753036581362276
  0.2494063345025717  0.0717718877129849  0.2341604459228405
  0.1354557174993815  0.1298777585528883  0.2296000563756428
  0.9043389707510706  0.1316276177587852  0.2201949055201325
  0.7828980001415892  0.0959076493436313  0.2214643012772226
  0.8252955558969014  0.5231895072051630  0.2045649553504691
  0.7218825186142528  0.4538241049449618  0.2084266305601769
  0.6732915311315599  0.7022895931982248  0.3720585502680417
  0.6440211548691929  0.6044002576733875  0.4010215132791498
  0.3904327183395832  0.7793967906690440  0.2364234366539707
  0.4559022892177554  0.7403119320086345  0.1938066353225083
  0.3821444852734551  0.4964894581353992  0.2073286706368564
  0.4120739085907981  0.4040161644634122  0.2393441542850537
  0.1091952832680542  0.3171344253791316  0.3477947904463513
 -0.0017554136375366  0.3713491933470910  0.3382634559345209
  0.9579471595057897  0.9017741504856989  0.4369174316699661
  0.8999423012836811  0.8741285762061045  0.4814086125030084
  0.5223318522257501  0.0916643169479088  0.3158190175295230
  0.4999935455530728  0.2096349368915345  0.3011465382269020
  0.0800421801085680  0.7829754110250106  0.2295655862604848
  0.0635825976639656  0.7002499491810966  0.2683869513254053
  0.0173081556960639  0.4533066627099829  0.2107681563319721
  0.9799137464842604  0.3909597501722710  0.2530482838454947
  0.8562655960183915  0.2009519049679390  0.3659312828743040
  0.9540605654024187  0.2558817612296975  0.3885270513432860
  0.4887877086282318  0.4221772129663168  0.3658113005486929
  0.3873381889845228  0.3774831650022004  0.3914077405174171
  0.8403576376935582  0.7749394870502355  0.2586809055156923
  0.8309084085675414  0.7122900697673139  0.2146304998654883
  0.6531347885822012  0.3739979235410296  0.3706514046051777
  0.6170058507917200  0.3449155489015111  0.3223027790899207
  0.2117230535378193  0.9891910857428412  0.3488013592888308
  0.1528542661780496  0.0013268500630346  0.3030655179753468
  0.3677784576454715  0.7326507290748886  0.3994490168688818
  0.4690044727376980  0.8029443691896151  0.3970338030173376
  0.5654455816584205  0.3574337295948610  0.1960957952651836
  0.6288436091647557  0.2512219560531274  0.1979814122332817
  0.2123062216027195  0.6295952608266169  0.2126481872841813
  0.2963632279548683  0.6554164670340920  0.1768673949064279
  0.8533166607981371  0.4562335905275887  0.3027527207693937
  0.8422086061240103  0.3311843311524181  0.3028096313320953
  0.6871144781156946  0.8376931520763083  0.2312501558484351
  0.5601989950139629  0.8439513019590948  0.2286083610714046
  0.8859443038443877  0.9152015267041526  0.3536885402043285
  0.9019559261349250  0.8008912235226819  0.3356241366343898
  0.4704875890244436  0.5349288204469123  0.4170123309082671
  0.4867470777537035  0.6458346043167061  0.4382873926284518
  0.6663523054210382  0.3403687788417867  0.4461561809286298
  0.7660356593871073  0.2873855538970634  0.4210242419017977
  0.4439081280520099  0.0628818181011190  0.2093400055263292
  0.3847475494596779  0.9568368715497594  0.2036553080556127
  0.3822081098358642  0.0128562231342195  0.3747398342548213
  0.3047707878764028  0.9983083653949598  0.4153064102002428
  0.5230865498679536  0.5548361525426687  0.2595386824297517
  0.5705826979323998  0.5402313450731158  0.3066091161212428
  0.3349119773150622  0.2810960193671366  0.2992133255183416
  0.4096831975663047  0.3696789068809935  0.3141690762142632
  0.3217623800314824  0.7428917580764136  0.3169652873859705
  0.2588605839601805  0.8420914703555511  0.3027073820332511
  0.6206139259568664  0.0116010316604700  0.2234130420720359
  0.5956398349669795  0.1145128802368105  0.2491117164895411
  0.3326814799510451  0.5741223163743358  0.3618324455546829
  0.2203540641712423  0.6222094838408130  0.3725595482900322
  0.0434357975810397  0.1909840173067257  0.1674626455509973
  0.0335406104352478  0.2728567960497572  0.2074676558148151
  0.3494652325270470  0.1886603781739445  0.4164207828468183
  0.3932581441764955  0.2666625116277816  0.4521768208880815
  0.7062432871980437  0.1825431176626311  0.3143765407649463
  0.8115707539389516  0.1574886401717587  0.2877300188292101
  0.0272954676191364  0.5919700710321656  0.4051476748147803
  0.0796761284655577  0.4961439623422536  0.3789644806623320
  0.4240485128163161  0.9093513670948044  0.3199941809733328
  0.5372423219049517  0.9226041118695014  0.3418628604825901
  0.0250916040022711  0.6431854280899122  0.3396560767928994
  0.9215446859265024  0.6409659649714567  0.3096329650193712
  0.2417793955888776  0.1727791675186683  0.3469360276776058
  0.2013947259067927  0.1713347972205225  0.2973039460693404
  0.0343748125229508  0.9930835089388687  0.3705965526874640
  0.9504866154097802  0.0713450442786830  0.3930780095281883
  0.5507729147099890  0.4692353399004565  0.4769638079515250
  0.5922169822309282  0.4099719751177006  0.5190870318060889
  0.9638857565808118  0.9214163848266105  0.2209071691352031
  0.0781021394661399  0.9685108298007771  0.2269199220114517
  0.6270604261031378  0.8116593441247183  0.3089452380821715
  0.7180885124136801  0.8468757589745001  0.3408580958574222
  0.8446831104342817  0.6353480365416914  0.4167184004287783
  0.9228964812081129  0.7092805481719360  0.4425762252536155
 
  0.00000000E+00  0.00000000E+00  0.00000000E+00
  0.00000000E+00  0.00000000E+00  0.00000000E+00
  0.00000000E+00  0.00000000E+00  0.00000000E+00
  0.00000000E+00  0.00000000E+00  0.00000000E+00
  0.00000000E+00  0.00000000E+00  0.00000000E+00
  0.00000000E+00  0.00000000E+00  0.00000000E+00
  0.00000000E+00  0.00000000E+00  0.00000000E+00
  0.00000000E+00  0.00000000E+00  0.00000000E+00
  0.00000000E+00  0.00000000E+00  0.00000000E+00
  0.00000000E+00  0.00000000E+00  0.00000000E+00
  0.00000000E+00  0.00000000E+00  0.00000000E+00
  0.00000000E+00  0.00000000E+00  0.00000000E+00
  0.00000000E+00  0.00000000E+00  0.00000000E+00
  0.00000000E+00  0.00000000E+00  0.00000000E+00
  0.00000000E+00  0.00000000E+00  0.00000000E+00
  0.00000000E+00  0.00000000E+00  0.00000000E+00
  0.00000000E+00  0.00000000E+00  0.00000000E+00
  0.00000000E+00  0.00000000E+00  0.00000000E+00
  0.00000000E+00  0.00000000E+00  0.00000000E+00
  0.00000000E+00  0.00000000E+00  0.00000000E+00
  0.00000000E+00  0.00000000E+00  0.00000000E+00
  0.00000000E+00  0.00000000E+00  0.00000000E+00
  0.00000000E+00  0.00000000E+00  0.00000000E+00
  0.00000000E+00  0.00000000E+00  0.00000000E+00
  0.00000000E+00  0.00000000E+00  0.00000000E+00
  0.00000000E+00  0.00000000E+00  0.00000000E+00
  0.00000000E+00  0.00000000E+00  0.00000000E+00
  0.00000000E+00  0.00000000E+00  0.00000000E+00
  0.00000000E+00  0.00000000E+00  0.00000000E+00
  0.00000000E+00  0.00000000E+00  0.00000000E+00
  0.00000000E+00  0.00000000E+00  0.00000000E+00
  0.00000000E+00  0.00000000E+00  0.00000000E+00
  0.00000000E+00  0.00000000E+00  0.00000000E+00
  0.00000000E+00  0.00000000E+00  0.00000000E+00
  0.00000000E+00  0.00000000E+00  0.00000000E+00
  0.00000000E+00  0.00000000E+00  0.00000000E+00
  0.00000000E+00  0.00000000E+00  0.00000000E+00
  0.00000000E+00  0.00000000E+00  0.00000000E+00
  0.00000000E+00  0.00000000E+00  0.00000000E+00
  0.00000000E+00  0.00000000E+00  0.00000000E+00
  0.00000000E+00  0.00000000E+00  0.00000000E+00
  0.00000000E+00  0.00000000E+00  0.00000000E+00
  0.00000000E+00  0.00000000E+00  0.00000000E+00
  0.00000000E+00  0.00000000E+00  0.00000000E+00
  0.00000000E+00  0.00000000E+00  0.00000000E+00
  0.00000000E+00  0.00000000E+00  0.00000000E+00
  0.00000000E+00  0.00000000E+00  0.00000000E+00
  0.00000000E+00  0.00000000E+00  0.00000000E+00
  0.00000000E+00  0.00000000E+00  0.00000000E+00
  0.00000000E+00  0.00000000E+00  0.00000000E+00
  0.00000000E+00  0.00000000E+00  0.00000000E+00
  0.00000000E+00  0.00000000E+00  0.00000000E+00
  0.00000000E+00  0.00000000E+00  0.00000000E+00
  0.00000000E+00  0.00000000E+00  0.00000000E+00
  0.00000000E+00  0.00000000E+00  0.00000000E+00
  0.00000000E+00  0.00000000E+00  0.00000000E+00
  0.00000000E+00  0.00000000E+00  0.00000000E+00
  0.00000000E+00  0.00000000E+00  0.00000000E+00
  0.00000000E+00  0.00000000E+00  0.00000000E+00
  0.00000000E+00  0.00000000E+00  0.00000000E+00
  0.00000000E+00  0.00000000E+00  0.00000000E+00
  0.00000000E+00  0.00000000E+00  0.00000000E+00
  0.00000000E+00  0.00000000E+00  0.00000000E+00
  0.00000000E+00  0.00000000E+00  0.00000000E+00
  0.00000000E+00  0.00000000E+00  0.00000000E+00
  0.00000000E+00  0.00000000E+00  0.00000000E+00
  0.00000000E+00  0.00000000E+00  0.00000000E+00
  0.00000000E+00  0.00000000E+00  0.00000000E+00
  0.00000000E+00  0.00000000E+00  0.00000000E+00
  0.00000000E+00  0.00000000E+00  0.00000000E+00
  0.00000000E+00  0.00000000E+00  0.00000000E+00
  0.00000000E+00  0.00000000E+00  0.00000000E+00
  0.00000000E+00  0.00000000E+00  0.00000000E+00
  0.00000000E+00  0.00000000E+00  0.00000000E+00
  0.00000000E+00  0.00000000E+00  0.00000000E+00
  0.00000000E+00  0.00000000E+00  0.00000000E+00
  0.00000000E+00  0.00000000E+00  0.00000000E+00
  0.00000000E+00  0.00000000E+00  0.00000000E+00
  0.00000000E+00  0.00000000E+00  0.00000000E+00
  0.00000000E+00  0.00000000E+00  0.00000000E+00
  0.00000000E+00  0.00000000E+00  0.00000000E+00
  0.00000000E+00  0.00000000E+00  0.00000000E+00
  0.00000000E+00  0.00000000E+00  0.00000000E+00
  0.00000000E+00  0.00000000E+00  0.00000000E+00
  0.00000000E+00  0.00000000E+00  0.00000000E+00
  0.00000000E+00  0.00000000E+00  0.00000000E+00
  0.00000000E+00  0.00000000E+00  0.00000000E+00
  0.00000000E+00  0.00000000E+00  0.00000000E+00
  0.00000000E+00  0.00000000E+00  0.00000000E+00
  0.00000000E+00  0.00000000E+00  0.00000000E+00
  0.00000000E+00  0.00000000E+00  0.00000000E+00
  0.00000000E+00  0.00000000E+00  0.00000000E+00
  0.00000000E+00  0.00000000E+00  0.00000000E+00
  0.00000000E+00  0.00000000E+00  0.00000000E+00
  0.00000000E+00  0.00000000E+00  0.00000000E+00
  0.00000000E+00  0.00000000E+00  0.00000000E+00
  0.00000000E+00  0.00000000E+00  0.00000000E+00
  0.00000000E+00  0.00000000E+00  0.00000000E+00
  0.00000000E+00  0.00000000E+00  0.00000000E+00
  0.00000000E+00  0.00000000E+00  0.00000000E+00
  0.00000000E+00  0.00000000E+00  0.00000000E+00
  0.00000000E+00  0.00000000E+00  0.00000000E+00
  0.00000000E+00  0.00000000E+00  0.00000000E+00
  0.00000000E+00  0.00000000E+00  0.00000000E+00
  0.00000000E+00  0.00000000E+00  0.00000000E+00
  0.00000000E+00  0.00000000E+00  0.00000000E+00
  0.00000000E+00  0.00000000E+00  0.00000000E+00
  0.00000000E+00  0.00000000E+00  0.00000000E+00
  0.00000000E+00  0.00000000E+00  0.00000000E+00
  0.00000000E+00  0.00000000E+00  0.00000000E+00
  0.00000000E+00  0.00000000E+00  0.00000000E+00
  0.00000000E+00  0.00000000E+00  0.00000000E+00
  0.00000000E+00  0.00000000E+00  0.00000000E+00
  0.00000000E+00  0.00000000E+00  0.00000000E+00
  0.00000000E+00  0.00000000E+00  0.00000000E+00
  0.00000000E+00  0.00000000E+00  0.00000000E+00
  0.00000000E+00  0.00000000E+00  0.00000000E+00
  0.00000000E+00  0.00000000E+00  0.00000000E+00
  0.00000000E+00  0.00000000E+00  0.00000000E+00
  0.00000000E+00  0.00000000E+00  0.00000000E+00
  0.00000000E+00  0.00000000E+00  0.00000000E+00
  0.00000000E+00  0.00000000E+00  0.00000000E+00
  0.00000000E+00  0.00000000E+00  0.00000000E+00
  0.00000000E+00  0.00000000E+00  0.00000000E+00
  0.00000000E+00  0.00000000E+00  0.00000000E+00
  0.00000000E+00  0.00000000E+00  0.00000000E+00
  0.00000000E+00  0.00000000E+00  0.00000000E+00
  0.00000000E+00  0.00000000E+00  0.00000000E+00
  0.00000000E+00  0.00000000E+00  0.00000000E+00
  0.00000000E+00  0.00000000E+00  0.00000000E+00
  0.00000000E+00  0.00000000E+00  0.00000000E+00
  0.00000000E+00  0.00000000E+00  0.00000000E+00
  0.00000000E+00  0.00000000E+00  0.00000000E+00
  0.00000000E+00  0.00000000E+00  0.00000000E+00
  0.00000000E+00  0.00000000E+00  0.00000000E+00
  0.00000000E+00  0.00000000E+00  0.00000000E+00
  0.00000000E+00  0.00000000E+00  0.00000000E+00
  0.00000000E+00  0.00000000E+00  0.00000000E+00
  0.00000000E+00  0.00000000E+00  0.00000000E+00
  0.00000000E+00  0.00000000E+00  0.00000000E+00
  0.00000000E+00  0.00000000E+00  0.00000000E+00
  0.00000000E+00  0.00000000E+00  0.00000000E+00
  0.00000000E+00  0.00000000E+00  0.00000000E+00
  0.00000000E+00  0.00000000E+00  0.00000000E+00
  0.00000000E+00  0.00000000E+00  0.00000000E+00
  0.00000000E+00  0.00000000E+00  0.00000000E+00
  0.00000000E+00  0.00000000E+00  0.00000000E+00
  0.00000000E+00  0.00000000E+00  0.00000000E+00
  0.00000000E+00  0.00000000E+00  0.00000000E+00
  0.00000000E+00  0.00000000E+00  0.00000000E+00
  0.00000000E+00  0.00000000E+00  0.00000000E+00
  0.00000000E+00  0.00000000E+00  0.00000000E+00
  0.00000000E+00  0.00000000E+00  0.00000000E+00
  0.00000000E+00  0.00000000E+00  0.00000000E+00
  0.00000000E+00  0.00000000E+00  0.00000000E+00
  0.00000000E+00  0.00000000E+00  0.00000000E+00
  0.00000000E+00  0.00000000E+00  0.00000000E+00
  0.00000000E+00  0.00000000E+00  0.00000000E+00
  0.00000000E+00  0.00000000E+00  0.00000000E+00
  0.00000000E+00  0.00000000E+00  0.00000000E+00
  0.00000000E+00  0.00000000E+00  0.00000000E+00
  0.00000000E+00  0.00000000E+00  0.00000000E+00
  0.00000000E+00  0.00000000E+00  0.00000000E+00
  0.00000000E+00  0.00000000E+00  0.00000000E+00
  0.00000000E+00  0.00000000E+00  0.00000000E+00
  0.00000000E+00  0.00000000E+00  0.00000000E+00
  0.00000000E+00  0.00000000E+00  0.00000000E+00
  0.00000000E+00  0.00000000E+00  0.00000000E+00
  0.00000000E+00  0.00000000E+00  0.00000000E+00
  0.00000000E+00  0.00000000E+00  0.00000000E+00
  0.00000000E+00  0.00000000E+00  0.00000000E+00
  0.00000000E+00  0.00000000E+00  0.00000000E+00
  0.00000000E+00  0.00000000E+00  0.00000000E+00
  0.00000000E+00  0.00000000E+00  0.00000000E+00
  0.00000000E+00  0.00000000E+00  0.00000000E+00
  0.00000000E+00  0.00000000E+00  0.00000000E+00
  0.00000000E+00  0.00000000E+00  0.00000000E+00
  0.00000000E+00  0.00000000E+00  0.00000000E+00
  0.00000000E+00  0.00000000E+00  0.00000000E+00
  0.00000000E+00  0.00000000E+00  0.00000000E+00
  0.00000000E+00  0.00000000E+00  0.00000000E+00
  0.00000000E+00  0.00000000E+00  0.00000000E+00
  0.00000000E+00  0.00000000E+00  0.00000000E+00
  0.00000000E+00  0.00000000E+00  0.00000000E+00
  0.00000000E+00  0.00000000E+00  0.00000000E+00
  0.00000000E+00  0.00000000E+00  0.00000000E+00
  0.00000000E+00  0.00000000E+00  0.00000000E+00
  0.00000000E+00  0.00000000E+00  0.00000000E+00
  0.00000000E+00  0.00000000E+00  0.00000000E+00
  0.00000000E+00  0.00000000E+00  0.00000000E+00
  0.00000000E+00  0.00000000E+00  0.00000000E+00
  0.00000000E+00  0.00000000E+00  0.00000000E+00
  0.00000000E+00  0.00000000E+00  0.00000000E+00
  0.00000000E+00  0.00000000E+00  0.00000000E+00
  0.00000000E+00  0.00000000E+00  0.00000000E+00
