 C  N Cr  O  H                          
   1.00000000000000     
    12.4758271999999995    0.0000000000000000    0.0000000000000000
     0.0000000000000000   12.7377722999999996    0.0000000000000000
     0.0000000000000000    0.0000000000000000   30.0000000000000000
   C    N    Cr   O    H 
    54     4     1    46    91
Direct
  0.9878633390582624  0.1069983929421730  0.1032293244446083
  0.0884082861586088  0.1621083367846525  0.1030789692567477
  0.0878754814678725  0.2734470293272797  0.1015665730633471
  0.9878268314056293  0.3285854354595078  0.0999149000328405
  0.1890214444321194  0.1075107594759439  0.1040880169414517
  0.2891273943226944  0.1636082979103832  0.1053963554169731
  0.2880098585652250  0.2755236489427904  0.1050000439881700
  0.1871481192605364  0.3290086803597146  0.1022662611335633
  0.3893016530738352  0.1079879586222524  0.1070497319765528
  0.4877932638836179  0.1667986153055022  0.1084507648153975
  0.4877390244843109  0.2808061274607178  0.1096925583910707
  0.3856581858827848  0.3358692105128857  0.1082163783318553
  0.5863838080159203  0.1080396916364561  0.1076149297676148
  0.6866448791206330  0.1635083699533490  0.1063279713622216
  0.6878259006131121  0.2753884647145493  0.1061548851737729
  0.5900635532619778  0.3355473208393427  0.1093533213957009
  0.7868210768422633  0.1075787121916998  0.1049954382255212
  0.8874297750185099  0.1621366506180057  0.1036111751377071
  0.8879983433057790  0.2734364055812368  0.1020506247704029
  0.7887545673519253  0.3289032211919544  0.1031073498049085
  0.9878630597932686  0.4395250632627179  0.0972245709586211
  0.0864223727593157  0.4959617275237945  0.0974210999402038
  0.0863239258575999  0.6072292153063955  0.0969466341118529
  0.9877974956342783  0.6635309200283497  0.0966749613763057
  0.1854314514313562  0.4405845385103608  0.1006538746661533
  0.2830773563539397  0.4954916914880738  0.1039819553408971
  0.2828164167508109  0.6078958550900870  0.1032461234374450
  0.1851948135377168  0.6628379868853594  0.0993795188310743
  0.6927384956202404  0.4954621399988142  0.1052301021878648
  0.6926826566154108  0.6077252008442714  0.1043130839137206
  0.7902755767327865  0.4403727975267229  0.1011539306515529
  0.8891518078009832  0.4957710084288058  0.0971393508950687
  0.8892149234857294  0.6072957051114758  0.0969905405221444
  0.7903608933415323  0.6627148455875891  0.1004518639471137
  0.9879029638329320  0.7745996954131436  0.0987689453310443
  0.0878330467008218  0.8298472724192796  0.0998879093974539
  0.9879244868039664  0.9961624139854297  0.1027546754460847
  0.1869933820578479  0.7743289185627729  0.1002508347875874
  0.2876471305192597  0.8279258537769399  0.1030620361782193
  0.2890049967408289  0.9397165541494966  0.1041716051567949
  0.1889736118029288  0.9956547526374651  0.1034609115356243
  0.3852069720520794  0.7676704884563788  0.1063732362533673
  0.4876603314312389  0.8224776503006024  0.1079534160680778
  0.4877631424654860  0.9364293952549844  0.1074339568020949
  0.3892004119261027  0.9952015365505296  0.1064428502606333
  0.5899761164060600  0.7676251704447378  0.1072908616805021
  0.6878428346708894  0.8279051842652561  0.1048327484319079
  0.6866461358383192  0.9397867177231917  0.1055896105998495
  0.5863739673563726  0.9952656490249393  0.1071692083363216
  0.7886878378375974  0.7742328262316178  0.1020040060521777
  0.8879966277054605  0.8297794215026529  0.1010328742598736
  0.7868274260917880  0.9957549311194563  0.1046505135410752
  0.0884025585971528  0.9409834339801402  0.1019890491477806
  0.8874376669889147  0.9411395445126688  0.1028923139578157
  0.3797767681288176  0.4435181694822316  0.1092402916124496
  0.3791313647054582  0.6603750556577895  0.1076493223531614
  0.5961299883279201  0.4434597047222029  0.1112247289427437
  0.5960424932836048  0.6599732030094618  0.1083799331733298
  0.4872002999408793  0.5528532509068944  0.1242340943587267
  0.8632855774575718  0.9990299508851396  0.2728221576281450
  0.9580393057600739  0.6966639343097111  0.2741377760430437
  0.5628635279433477  0.8743795897032876  0.2169762072596047
  0.1891320183949243  0.7903323232014903  0.2059687331847702
  0.6979334040224134  0.2785440093976315  0.2284830670935537
  0.6772535433790936  0.1036680759931633  0.4290666467231322
  0.6865418733771840  0.5086377688477747  0.2230572287324481
  0.3461564334493153  0.9427928403837682  0.2229753755345822
  0.4708750103566263  0.1552291934216281  0.3064907313787767
  0.0914670014286021  0.5557305781980899  0.3997377329406394
  0.7811071506857241  0.2106684785888722  0.3580721368063084
  0.7452433582372050  0.6567751703105736  0.2900910817543581
  0.3120668553570928  0.1583184045670062  0.2377829156529098
  0.0838145414406918  0.7840400018031995  0.5005326335165534
  0.8739664817178019  0.7481834143354384  0.4589047560925343
  0.8539655730242950  0.9585216677446949  0.4387636309670236
  0.9693374867693328  0.3648690180168817  0.3187436758805872
  0.2120349481848516  0.6480959812991393  0.2735776628298213
  0.2639130692775015  0.4214028186817083  0.3707697967331314
  0.5702355942901181  0.1064165972730144  0.2229157618724750
  0.3212835456103306  0.3773558812291996  0.2069106209396380
  0.1247585637688881  0.2422062748156861  0.3664285413748976
  0.9048844459180955  0.5371236278542031  0.2012652401200676
  0.1528180688685063  0.9327366804466571  0.3751271162169962
  0.5168733462676134  0.8783723062017157  0.3557258601972695
  0.4299413807756777  0.6900781671716770  0.3925196046221867
  0.6788894281660143  0.8680789290966832  0.2939100155631531
  0.2698961974670812  0.0817453572163696  0.4292455204187469
  0.7775873403566782  0.4802624665499739  0.3409987005152514
  0.4906818952748422  0.4617285355166421  0.4011161717036645
  0.4268779577095557  0.6685969579478799  0.3013580887364087
  0.9558768637909543  0.0429455967614986  0.3556435986263196
  0.2515796766533199  0.6759455108700839  0.4464021688470453
  0.0778670927918932  0.4774450597554803  0.2537485590341301
  0.8612092169403004  0.5293510350898791  0.4244800012677241
  0.9003281568967642  0.2128902787416857  0.2532444047894232
  0.0929780369292601  0.7285979702174056  0.3431866440218135
  0.6938887057914211  0.3408239000919859  0.4259768107425178
  0.6044743747515298  0.3423829764520278  0.3096288686415368
  0.1016926486859925  0.2673651909300440  0.2174232179410491
  0.3100662275702848  0.9054631483619726  0.3143252869966796
  0.4761827756172059  0.0671654011332862  0.3928329326280995
  0.9655978499302454  0.8554104074982283  0.2138184574188852
  0.9972902796313644  0.9817303701749094  0.5112674961249035
  0.4176192097557642  0.4531617748864535  0.3028012821995584
  0.4867400064147580  0.5789769679025528  0.1850573843861145
  0.8728658050364139  0.0724785077576181  0.2625005130257476
  0.8995206127986727  0.9545299775640869  0.2503968900045210
 -0.0000630633424960  0.7160351274432226  0.3014423860442458
  0.9920574964670463  0.6329214351405634  0.2627374384576201
  0.6070872173606446  0.8656289115005481  0.2444805528893883
  0.5746067200130399  0.8127664390831548  0.1984196773778246
  0.1188609454843070  0.8249765712174025  0.2066363339817079
  0.2426101604997657  0.8469112776566120  0.2095222469381599
  0.6771664381522485  0.3418623352057305  0.2122695927805798
  0.6512766526534036  0.2183476078997902  0.2198172282402004
  0.7116856404503030  0.1265627966821043  0.4010982516338236
  0.7245577601665496  0.0465167147851074  0.4393466232531630
  0.6898806111576173  0.5578678547632454  0.2483941018790872
  0.7600283621504841  0.5143321617162109  0.2111141302832226
  0.4220286773093022  0.9245653900187981  0.2181332299103551
  0.3393395290440746  0.0201032624027688  0.2220236676192196
  0.5133229289525854  0.2197941643415964  0.3107077049950355
  0.4688452648549103  0.1223144838503616  0.3364255984684302
  0.0816424395093767  0.6177208960440982  0.3801467295692660
  0.0197166015522590  0.5375859008266091  0.4109602365754483
  0.7391290146282731  0.2178215749057171  0.3308802446672357
  0.7572911490980671  0.2703854014773213  0.3768113193465172
  0.7163932922371257  0.7276827834563947  0.2958477030789143
  0.8217276971157615  0.6699961293210315  0.2827046246720326
  0.2380745138402916  0.1821390564039186  0.2420494682377747
  0.3495215596726360  0.1628175266830598  0.2667165164779448
  0.0877854080975924  0.7535357731413482  0.5302166733390608
  0.0615767415759353  0.8584297644423541  0.5055378370243432
  0.8616940852843669  0.6784656159635108  0.4459342569498920
  0.9456689687823682  0.7457028829053233  0.4724912908256975
  0.8899651819940406  0.9734873031712713  0.4103222713056701
  0.8526724461386437  0.8806047394371628  0.4416992496650121
  0.9381005542398361  0.3106001883714319  0.2990209877550596
  0.9066931350885156  0.4051414662064206  0.3295052335055217
  0.2033904608789883  0.6992486646333003  0.2484530091068734
  0.2891608816990499  0.6510013142233950  0.2809000503329535
  0.2296164760944775  0.3521209226731782  0.3678634295215772
  0.2042970507530034  0.4680431668087637  0.3797505099446402
  0.5375127471575766  0.1052320777717051  0.2528226999922904
  0.5847806030473155  0.0333562414418232  0.2149829250438158
  0.3608051013286755  0.4234255923097415  0.2270290385878765
  0.3380526997881130  0.3062218628528869  0.2171422939514722
  0.0653429123994095  0.2852822781924640  0.3544088979513259
  0.1176821239186127  0.1751334671224974  0.3511234096303326
  0.9248768589470283  0.5362876868399685  0.1699630382727018
  0.9670761434529446  0.5071872053401582  0.2173634987602731
  0.2060882096487359  0.9343710117897587  0.3502699069766270
  0.0910426674870147  0.9759618288992050  0.3662811161799974
  0.5044739333713185  0.9436234883153248  0.3735420844375704
  0.5025915226634429  0.8183759179503290  0.3755844637366524
  0.3633932606811971  0.6940794601453016  0.4110266399428847
  0.4632408049779549  0.6231819153371156  0.4011288711873016
  0.7357881039432498  0.9216144232446534  0.2920421969981652
  0.6309164374769720  0.8828335947789381  0.3196571374680560
  0.2287757410116412  0.0249397927336194  0.4146001160661015
  0.2328438354325508  0.1458565556206014  0.4203157580795623
  0.7159030518886744  0.4343755256632773  0.3345419848177997
  0.7620778027840871  0.5469922248643493  0.3250648907975101
  0.4165862984993069  0.4409281123278966  0.4077060109378417
  0.4915777297879140  0.4564085287520633  0.3685337911632862
  0.4242552396139653  0.6873450159284148  0.3336437228076628
  0.4598471964497542  0.7267662746349023  0.2854983547645150
  0.9269689261407262  0.0175666547001065  0.3267284165803098
  0.9198019615733239  0.1105567741439765  0.3598677742697843
  0.1951627618710867  0.6295753973097371  0.4345425186992327
  0.2116614690591019  0.7289491482126595  0.4633230041761679
  0.0487615820590972  0.4464123677398694  0.2816170841917665
  0.1374648066057471  0.5257873826999313  0.2614077807667408
  0.8253172626589831  0.5139171431142832  0.3956859479098284
  0.8278005301986873  0.4788294269094682  0.4446010710476135
  0.8356423291820937  0.2427528418685570  0.2388501410616209
  0.9630019072776249  0.2293743336844601  0.2343052830632233
  0.1121905710140165  0.7962874513894359  0.3573876597976483
  0.1514920785759024  0.7106161129842288  0.3219503434091096
  0.6248917625246539  0.3755386403428336  0.4200731078981030
  0.6760194369176636  0.2751170229542068  0.4412204575338146
  0.5389024704557973  0.3853230719151509  0.3044968942736615
  0.6361052790380317  0.3301118865365031  0.2798019231537069
  0.1163702036566588  0.3401633095841200  0.2271713716878339
  0.1227398043127969  0.2671420013798012  0.1861448353512312
  0.3821618369642991  0.8974775734363948  0.3272257105643197
  0.3208732124973834  0.9205049520607594  0.2823474469475436
  0.4083861927191468  0.0753874401100476  0.4098604669944973
  0.5389168627927570  0.0831064375525858  0.4120203460489040
  0.9588329981110928  0.7925324411680316  0.2336364459589984
  0.9299421324614822  0.8371227142722593  0.1859942872797393
  0.9461800639111034  0.9847624336169465  0.4859208987655480
  0.0430729757787517  0.0430977432898806  0.5082103102803475
  0.4259398887953799  0.5294495461902048  0.2980063241898504
  0.3546777155573511  0.4446101610878243  0.3226880124406918
  0.5543213074103042  0.5535163884243475  0.1983001833658644
 
  0.00000000E+00  0.00000000E+00  0.00000000E+00
  0.00000000E+00  0.00000000E+00  0.00000000E+00
  0.00000000E+00  0.00000000E+00  0.00000000E+00
  0.00000000E+00  0.00000000E+00  0.00000000E+00
  0.00000000E+00  0.00000000E+00  0.00000000E+00
  0.00000000E+00  0.00000000E+00  0.00000000E+00
  0.00000000E+00  0.00000000E+00  0.00000000E+00
  0.00000000E+00  0.00000000E+00  0.00000000E+00
  0.00000000E+00  0.00000000E+00  0.00000000E+00
  0.00000000E+00  0.00000000E+00  0.00000000E+00
  0.00000000E+00  0.00000000E+00  0.00000000E+00
  0.00000000E+00  0.00000000E+00  0.00000000E+00
  0.00000000E+00  0.00000000E+00  0.00000000E+00
  0.00000000E+00  0.00000000E+00  0.00000000E+00
  0.00000000E+00  0.00000000E+00  0.00000000E+00
  0.00000000E+00  0.00000000E+00  0.00000000E+00
  0.00000000E+00  0.00000000E+00  0.00000000E+00
  0.00000000E+00  0.00000000E+00  0.00000000E+00
  0.00000000E+00  0.00000000E+00  0.00000000E+00
  0.00000000E+00  0.00000000E+00  0.00000000E+00
  0.00000000E+00  0.00000000E+00  0.00000000E+00
  0.00000000E+00  0.00000000E+00  0.00000000E+00
  0.00000000E+00  0.00000000E+00  0.00000000E+00
  0.00000000E+00  0.00000000E+00  0.00000000E+00
  0.00000000E+00  0.00000000E+00  0.00000000E+00
  0.00000000E+00  0.00000000E+00  0.00000000E+00
  0.00000000E+00  0.00000000E+00  0.00000000E+00
  0.00000000E+00  0.00000000E+00  0.00000000E+00
  0.00000000E+00  0.00000000E+00  0.00000000E+00
  0.00000000E+00  0.00000000E+00  0.00000000E+00
  0.00000000E+00  0.00000000E+00  0.00000000E+00
  0.00000000E+00  0.00000000E+00  0.00000000E+00
  0.00000000E+00  0.00000000E+00  0.00000000E+00
  0.00000000E+00  0.00000000E+00  0.00000000E+00
  0.00000000E+00  0.00000000E+00  0.00000000E+00
  0.00000000E+00  0.00000000E+00  0.00000000E+00
  0.00000000E+00  0.00000000E+00  0.00000000E+00
  0.00000000E+00  0.00000000E+00  0.00000000E+00
  0.00000000E+00  0.00000000E+00  0.00000000E+00
  0.00000000E+00  0.00000000E+00  0.00000000E+00
  0.00000000E+00  0.00000000E+00  0.00000000E+00
  0.00000000E+00  0.00000000E+00  0.00000000E+00
  0.00000000E+00  0.00000000E+00  0.00000000E+00
  0.00000000E+00  0.00000000E+00  0.00000000E+00
  0.00000000E+00  0.00000000E+00  0.00000000E+00
  0.00000000E+00  0.00000000E+00  0.00000000E+00
  0.00000000E+00  0.00000000E+00  0.00000000E+00
  0.00000000E+00  0.00000000E+00  0.00000000E+00
  0.00000000E+00  0.00000000E+00  0.00000000E+00
  0.00000000E+00  0.00000000E+00  0.00000000E+00
  0.00000000E+00  0.00000000E+00  0.00000000E+00
  0.00000000E+00  0.00000000E+00  0.00000000E+00
  0.00000000E+00  0.00000000E+00  0.00000000E+00
  0.00000000E+00  0.00000000E+00  0.00000000E+00
  0.00000000E+00  0.00000000E+00  0.00000000E+00
  0.00000000E+00  0.00000000E+00  0.00000000E+00
  0.00000000E+00  0.00000000E+00  0.00000000E+00
  0.00000000E+00  0.00000000E+00  0.00000000E+00
  0.00000000E+00  0.00000000E+00  0.00000000E+00
  0.00000000E+00  0.00000000E+00  0.00000000E+00
  0.00000000E+00  0.00000000E+00  0.00000000E+00
  0.00000000E+00  0.00000000E+00  0.00000000E+00
  0.00000000E+00  0.00000000E+00  0.00000000E+00
  0.00000000E+00  0.00000000E+00  0.00000000E+00
  0.00000000E+00  0.00000000E+00  0.00000000E+00
  0.00000000E+00  0.00000000E+00  0.00000000E+00
  0.00000000E+00  0.00000000E+00  0.00000000E+00
  0.00000000E+00  0.00000000E+00  0.00000000E+00
  0.00000000E+00  0.00000000E+00  0.00000000E+00
  0.00000000E+00  0.00000000E+00  0.00000000E+00
  0.00000000E+00  0.00000000E+00  0.00000000E+00
  0.00000000E+00  0.00000000E+00  0.00000000E+00
  0.00000000E+00  0.00000000E+00  0.00000000E+00
  0.00000000E+00  0.00000000E+00  0.00000000E+00
  0.00000000E+00  0.00000000E+00  0.00000000E+00
  0.00000000E+00  0.00000000E+00  0.00000000E+00
  0.00000000E+00  0.00000000E+00  0.00000000E+00
  0.00000000E+00  0.00000000E+00  0.00000000E+00
  0.00000000E+00  0.00000000E+00  0.00000000E+00
  0.00000000E+00  0.00000000E+00  0.00000000E+00
  0.00000000E+00  0.00000000E+00  0.00000000E+00
  0.00000000E+00  0.00000000E+00  0.00000000E+00
  0.00000000E+00  0.00000000E+00  0.00000000E+00
  0.00000000E+00  0.00000000E+00  0.00000000E+00
  0.00000000E+00  0.00000000E+00  0.00000000E+00
  0.00000000E+00  0.00000000E+00  0.00000000E+00
  0.00000000E+00  0.00000000E+00  0.00000000E+00
  0.00000000E+00  0.00000000E+00  0.00000000E+00
  0.00000000E+00  0.00000000E+00  0.00000000E+00
  0.00000000E+00  0.00000000E+00  0.00000000E+00
  0.00000000E+00  0.00000000E+00  0.00000000E+00
  0.00000000E+00  0.00000000E+00  0.00000000E+00
  0.00000000E+00  0.00000000E+00  0.00000000E+00
  0.00000000E+00  0.00000000E+00  0.00000000E+00
  0.00000000E+00  0.00000000E+00  0.00000000E+00
  0.00000000E+00  0.00000000E+00  0.00000000E+00
  0.00000000E+00  0.00000000E+00  0.00000000E+00
  0.00000000E+00  0.00000000E+00  0.00000000E+00
  0.00000000E+00  0.00000000E+00  0.00000000E+00
  0.00000000E+00  0.00000000E+00  0.00000000E+00
  0.00000000E+00  0.00000000E+00  0.00000000E+00
  0.00000000E+00  0.00000000E+00  0.00000000E+00
  0.00000000E+00  0.00000000E+00  0.00000000E+00
  0.00000000E+00  0.00000000E+00  0.00000000E+00
  0.00000000E+00  0.00000000E+00  0.00000000E+00
  0.00000000E+00  0.00000000E+00  0.00000000E+00
  0.00000000E+00  0.00000000E+00  0.00000000E+00
  0.00000000E+00  0.00000000E+00  0.00000000E+00
  0.00000000E+00  0.00000000E+00  0.00000000E+00
  0.00000000E+00  0.00000000E+00  0.00000000E+00
  0.00000000E+00  0.00000000E+00  0.00000000E+00
  0.00000000E+00  0.00000000E+00  0.00000000E+00
  0.00000000E+00  0.00000000E+00  0.00000000E+00
  0.00000000E+00  0.00000000E+00  0.00000000E+00
  0.00000000E+00  0.00000000E+00  0.00000000E+00
  0.00000000E+00  0.00000000E+00  0.00000000E+00
  0.00000000E+00  0.00000000E+00  0.00000000E+00
  0.00000000E+00  0.00000000E+00  0.00000000E+00
  0.00000000E+00  0.00000000E+00  0.00000000E+00
  0.00000000E+00  0.00000000E+00  0.00000000E+00
  0.00000000E+00  0.00000000E+00  0.00000000E+00
  0.00000000E+00  0.00000000E+00  0.00000000E+00
  0.00000000E+00  0.00000000E+00  0.00000000E+00
  0.00000000E+00  0.00000000E+00  0.00000000E+00
  0.00000000E+00  0.00000000E+00  0.00000000E+00
  0.00000000E+00  0.00000000E+00  0.00000000E+00
  0.00000000E+00  0.00000000E+00  0.00000000E+00
  0.00000000E+00  0.00000000E+00  0.00000000E+00
  0.00000000E+00  0.00000000E+00  0.00000000E+00
  0.00000000E+00  0.00000000E+00  0.00000000E+00
  0.00000000E+00  0.00000000E+00  0.00000000E+00
  0.00000000E+00  0.00000000E+00  0.00000000E+00
  0.00000000E+00  0.00000000E+00  0.00000000E+00
  0.00000000E+00  0.00000000E+00  0.00000000E+00
  0.00000000E+00  0.00000000E+00  0.00000000E+00
  0.00000000E+00  0.00000000E+00  0.00000000E+00
  0.00000000E+00  0.00000000E+00  0.00000000E+00
  0.00000000E+00  0.00000000E+00  0.00000000E+00
  0.00000000E+00  0.00000000E+00  0.00000000E+00
  0.00000000E+00  0.00000000E+00  0.00000000E+00
  0.00000000E+00  0.00000000E+00  0.00000000E+00
  0.00000000E+00  0.00000000E+00  0.00000000E+00
  0.00000000E+00  0.00000000E+00  0.00000000E+00
  0.00000000E+00  0.00000000E+00  0.00000000E+00
  0.00000000E+00  0.00000000E+00  0.00000000E+00
  0.00000000E+00  0.00000000E+00  0.00000000E+00
  0.00000000E+00  0.00000000E+00  0.00000000E+00
  0.00000000E+00  0.00000000E+00  0.00000000E+00
  0.00000000E+00  0.00000000E+00  0.00000000E+00
  0.00000000E+00  0.00000000E+00  0.00000000E+00
  0.00000000E+00  0.00000000E+00  0.00000000E+00
  0.00000000E+00  0.00000000E+00  0.00000000E+00
  0.00000000E+00  0.00000000E+00  0.00000000E+00
  0.00000000E+00  0.00000000E+00  0.00000000E+00
  0.00000000E+00  0.00000000E+00  0.00000000E+00
  0.00000000E+00  0.00000000E+00  0.00000000E+00
  0.00000000E+00  0.00000000E+00  0.00000000E+00
  0.00000000E+00  0.00000000E+00  0.00000000E+00
  0.00000000E+00  0.00000000E+00  0.00000000E+00
  0.00000000E+00  0.00000000E+00  0.00000000E+00
  0.00000000E+00  0.00000000E+00  0.00000000E+00
  0.00000000E+00  0.00000000E+00  0.00000000E+00
  0.00000000E+00  0.00000000E+00  0.00000000E+00
  0.00000000E+00  0.00000000E+00  0.00000000E+00
  0.00000000E+00  0.00000000E+00  0.00000000E+00
  0.00000000E+00  0.00000000E+00  0.00000000E+00
  0.00000000E+00  0.00000000E+00  0.00000000E+00
  0.00000000E+00  0.00000000E+00  0.00000000E+00
  0.00000000E+00  0.00000000E+00  0.00000000E+00
  0.00000000E+00  0.00000000E+00  0.00000000E+00
  0.00000000E+00  0.00000000E+00  0.00000000E+00
  0.00000000E+00  0.00000000E+00  0.00000000E+00
  0.00000000E+00  0.00000000E+00  0.00000000E+00
  0.00000000E+00  0.00000000E+00  0.00000000E+00
  0.00000000E+00  0.00000000E+00  0.00000000E+00
  0.00000000E+00  0.00000000E+00  0.00000000E+00
  0.00000000E+00  0.00000000E+00  0.00000000E+00
  0.00000000E+00  0.00000000E+00  0.00000000E+00
  0.00000000E+00  0.00000000E+00  0.00000000E+00
  0.00000000E+00  0.00000000E+00  0.00000000E+00
  0.00000000E+00  0.00000000E+00  0.00000000E+00
  0.00000000E+00  0.00000000E+00  0.00000000E+00
  0.00000000E+00  0.00000000E+00  0.00000000E+00
  0.00000000E+00  0.00000000E+00  0.00000000E+00
  0.00000000E+00  0.00000000E+00  0.00000000E+00
  0.00000000E+00  0.00000000E+00  0.00000000E+00
  0.00000000E+00  0.00000000E+00  0.00000000E+00
  0.00000000E+00  0.00000000E+00  0.00000000E+00
  0.00000000E+00  0.00000000E+00  0.00000000E+00
  0.00000000E+00  0.00000000E+00  0.00000000E+00
  0.00000000E+00  0.00000000E+00  0.00000000E+00
  0.00000000E+00  0.00000000E+00  0.00000000E+00
  0.00000000E+00  0.00000000E+00  0.00000000E+00
  0.00000000E+00  0.00000000E+00  0.00000000E+00
  0.00000000E+00  0.00000000E+00  0.00000000E+00
  0.00000000E+00  0.00000000E+00  0.00000000E+00
