 C  N Cu  O  H                          
   1.00000000000000     
    12.4568083000000005    0.0000000000000000    0.0000000000000000
     0.0000000000000000   12.7194003999999996    0.0000000000000000
     0.0000000000000000    0.0000000000000000   30.0000000000000000
   C    N    Cu   O    H 
    54     4     1    46    90
Direct
  0.1943071996085180  0.3736402034781457  0.0971290277358684
  0.2944175347747697  0.4286377764575867  0.0980902844364711
  0.2937708293410711  0.5398998419243899  0.0978178700357352
  0.1942325137741480  0.5950840410973876  0.0966248809743987
  0.3949643630806678  0.3739762741582849  0.0989184858277341
  0.4949320669578151  0.4298292389476207  0.0999501759462917
  0.4937542721177310  0.5420039287763596  0.1000154203177421
  0.3933298222687862  0.5955310003322394  0.0985251759405081
  0.5953296643129887  0.3749855274428209  0.1004077273678491
  0.6941932257387904  0.4343761547800170  0.1003365722287936
  0.6942487480558291  0.5481525938868022  0.1005962821482692
  0.5914328150761894  0.6030539503332710  0.1008631085327055
  0.7930308619559565  0.3750339254916739  0.0993787675206873
  0.8933771983313891  0.4299519662570569  0.0981285352367227
  0.8947085125838418  0.5421200785485650  0.0981211431564738
  0.7970538784757264  0.6030999278945943  0.0996906150460271
  0.9934567335686968  0.3740467723070585  0.0969779549143819
  0.0941936685751316  0.4287262468392591  0.0967805549681484
  0.0946856880011713  0.5400037387282232  0.0965594108075414
  0.9951247021161737  0.5956357370997997  0.0965269004962093
  0.1941818490882969  0.7068684472843390  0.0954178996856743
  0.2929778387954052  0.7624340116175995  0.0956624478008549
  0.2931070121116423  0.8739280261058950  0.0949581639096129
  0.1942252265457158  0.9294933792580450  0.0944414879553898
  0.3920318803303339  0.7069643744547922  0.0974669761386214
  0.4916646227502751  0.7605063071898278  0.0990573150410965
  0.4913276139851029  0.8754914332720006  0.0994159078576787
  0.3923312223692128  0.9294274255684737  0.0965235731990339
  0.8968439615938038  0.7604036401398543  0.0972668567697887
  0.8971886989281482  0.8753146334231916  0.0980414089352577
  0.9964507060530348  0.7069739802213574  0.0954619255629563
  0.0954643496981559  0.7624138355625752  0.0944249204899668
  0.0954729634059717  0.8738113942681841  0.0940926719213623
  0.9962878780113672  0.9292932681305578  0.0954727995450986
  0.1942976190539800  0.0412886159633990  0.0955110854372525
  0.2939291589594825  0.0964148462761488  0.0965274179956706
  0.1943005283756603  0.2625617909413923  0.0967730689234038
  0.3934687170061240  0.0408513104493239  0.0973681774131752
  0.4938216046416331  0.0944786303739464  0.0993402516191576
  0.4949865493597259  0.2067009654598466  0.0993773296822294
  0.3949572335944425  0.2623373227505587  0.0984262927097521
  0.5914492501134507  0.0340721358382021  0.1020916312834133
  0.6942536770459419  0.0887377736049146  0.1020621402384920
  0.6941970513068619  0.2026134530477558  0.1007031282060547
  0.5953123124035835  0.2618139284418848  0.1003718466024300
  0.7970015043781614  0.0340043456637926  0.1014259297597075
  0.8946376940631525  0.0943883632211147  0.0984207753247184
  0.8933998537611968  0.2066069808609272  0.0981797083168160
  0.7930958202729969  0.2618000955202838  0.0995039209402068
  0.9951105125305256  0.0407703051532497  0.0965999767924764
  0.0946749758633095  0.0963204587971353  0.0961075433488794
  0.9934800822729252  0.2622453416475947  0.0969902136262243
  0.2944749528739032  0.2076246123233654  0.0972050355479825
  0.0941745751999589  0.2076125987213804  0.0965380942936987
  0.5866566821773140  0.7100948365496353  0.1009084887140995
  0.5859540390282181  0.9266956324737985  0.1040630250988079
  0.8018709826023930  0.7101002812438032  0.0996579862757939
  0.8025877393143294  0.9265316414165462  0.1031906991381428
  0.6948937380296454  0.8294954829875556  0.1336143727171496
  0.6133988345436541  0.0299053078028246  0.2521428695174282
  0.7968449907369776  0.6683599358990560  0.4200126987328008
  0.9380987437950139  0.8714691111871660  0.2632287812428223
  0.0302257892941326  0.7270623660821899  0.2040111812850921
  0.9588750067084534  0.0811292035397482  0.2384497026474709
  0.9953043991145866  0.6676840805538877  0.3675950778639780
  0.4842716098325326  0.1033019413120475  0.3238761756878580
  0.4211171609537053  0.9769154481890624  0.2116883656582877
  0.2254127302808590  0.6103675501782725  0.3753386967163354
  0.1292835365815606  0.0858800220444734  0.4019788588824210
  0.4810228874291209  0.9360281003736798  0.3859075498039611
  0.0436336174514804  0.3422490152655183  0.2053304210483850
  0.3460988131577640  0.8107245616016303  0.2682919146733859
  0.4390941870646529  0.0708117647906712  0.4631071750101101
  0.5244646382281026  0.3200955053970698  0.3223144841209371
  0.7494315422171636  0.2904004607815719  0.2933092945011001
  0.7262153071568946  0.4969180612577956  0.3700060013509849
  0.8562475103891347  0.5791159396475426  0.3038041827195289
  0.2810791556273404  0.8218973861308517  0.3569254421331554
  0.7193501859476532  0.8382537632145326  0.2763351182067300
  0.1933330519905799  0.0780060490440338  0.2372148473372464
  0.2622137991525385  0.2826337289423627  0.2023103360220902
  0.9393566246825763  0.3565232402083942  0.3441394324600267
  0.0393726551097233  0.5310224659785920  0.2506561973088622
  0.6156921538913626  0.1966214709656958  0.4225524381610993
  0.8689444328618275  0.1145912814124252  0.4645353564220939
  0.4634252885418951  0.6124197416835869  0.2559810712291929
  0.9740039873705403  0.4165736674048582  0.4826882194256691
  0.2157598724942087  0.4853228633105287  0.3029452690679199
  0.0409715930965071  0.8745030281185949  0.3471544049146992
  0.8211636046374465  0.0988615308980160  0.3160748030511730
  0.1918432087766104  0.8643557634831126  0.2059325241743769
  0.8666000788441099  0.9747541824554486  0.3908583094035954
  0.3076120532563874  0.3830288531164522  0.4838000615038677
  0.0317096412847656  0.1961676863583635  0.5133383861800300
  0.6846477839498843  0.8362919764139912  0.3700939189646642
  0.8276071036432023  0.3120682624003718  0.4253029182641327
  0.3919607074758752  0.4073941511221162  0.2575000213270249
  0.4293030601981690  0.4688480487362691  0.3961122569306857
  0.2444883382559850  0.1189486978548320  0.3256568379698994
  0.1480402077973959  0.4479793100871862  0.4279857766608676
  0.2422997409431503  0.1684085268882879  0.4743943363597131
  0.7613537525387399  0.1862694318124407  0.2137958906642431
  0.5245185988168176  0.6486959591478951  0.3472527974980101
  0.1490698697377673  0.3210916694300709  0.3530823918247405
  0.6939142015404950  0.7890129876673103  0.1899512728503663
  0.6652830852284616  0.0789188485801087  0.2387273017105337
  0.6554988427589667  0.9674630441664822  0.2616492464874975
  0.8700544561824720  0.6728980030217958  0.4079465955697673
  0.7582677631821836  0.7275086078599440  0.4062638467650950
  0.9442223249166666  0.9428906231534627  0.2503670731134131
  0.9792563002863237  0.8744362482157069  0.2915781301934914
  0.9875534494147763  0.7710159253433881  0.2247947114926906
  0.0399695267088506  0.6592109638135613  0.2196226373681531
  0.9103145459265350  0.1291150334912383  0.2226510346295562
  0.0333532004981675  0.1049833950649475  0.2345745071990740
  0.9553242954056367  0.6322588383879366  0.3432732808500197
  0.0667245012775523  0.6350423018391738  0.3698000021658228
  0.5303085079922000  0.0794845350487339  0.2988491760909349
  0.4964195955526258  0.1803395934884036  0.3258946208893951
  0.4928460262276089  0.9996331786863000  0.2224447463763778
  0.3710139656112247  0.0313969736156001  0.2213898756346271
  0.2312303802467465  0.5745930353907081  0.3457407169367694
  0.2511472974360204  0.6837075625884487  0.3712833706683166
  0.1674553001432667  0.1179493201317980  0.4277334808826955
  0.1028810333389785  0.0180936472327831  0.4121465385072688
  0.4805913953934753  0.9956407603150134  0.3646655765936807
  0.4170124659386682  0.8940453741702684  0.3784858192926489
  0.0142473336208153  0.3572412398960523  0.1759958573793702
  0.0363977081373050  0.4098279981345895  0.2219270340527371
  0.2812350807238388  0.8183840428282630  0.2494396941269224
  0.3916021573291543  0.8663187099913103  0.2551520520815695
  0.4935303221550802  0.1233693008267735  0.4553359126070557
  0.4474233123577265  0.0171054377730263  0.4396900104074624
  0.5045581986677893  0.3630455990347798  0.3481944286320207
  0.4795616061716083  0.3484304095278710  0.2976270397403033
  0.6774667176010958  0.3109578581443003  0.3037957533867742
  0.7659407027743259  0.2206690197445239  0.3071221128883905
  0.7503158823514003  0.4316289403777137  0.3838282893532480
  0.7467652749016827  0.5531503520103878  0.3914344161959894
  0.8096054600089748  0.5377805606577748  0.3245684440008755
  0.8091766830941940  0.6313118562846657  0.2901871988689488
  0.2109063958576051  0.8569882271932461  0.3558883967676983
  0.3053832906892812  0.8191498163854327  0.3252640845519821
  0.7973624816458844  0.8528598392119722  0.2733957359557743
  0.7000494963364337  0.8099519902427536  0.2460236300423985
  0.2057601754060619  0.0813529703851874  0.2699053054215799
  0.1876984692985711  0.0031997119586935  0.2289298108495318
  0.1876975150677381  0.3098675511461663  0.2027781095790098
  0.2529537653499621  0.2104977946970153  0.2133252999448231
  0.8846649135001358  0.3427421308439126  0.3213026727722237
  0.9043172858374426  0.3350767683840168  0.3721990383007031
  0.1028518674694933  0.5188738457710658  0.2702857761712945
  0.9760330690445386  0.5366658066058105  0.2703015174633819
  0.6710616797099460  0.2509799988039996  0.4246975090667623
  0.6174473578209522  0.1729749290349371  0.3916762552064461
  0.9323425359233570  0.1363700292370737  0.4832167909104906
  0.8096078575292575  0.1044468757445245  0.4852022339266811
  0.4948106741380276  0.6176027524135468  0.2861354280296108
  0.4179887405687612  0.6755843330698855  0.2547939448545212
  0.9517965183292253  0.4802521145516180  0.4980859516895255
  0.0330718690705302  0.4377386919654592  0.4621080066016190
  0.2814137076885921  0.4626605918327808  0.2865887165699278
  0.1935084171683997  0.4209731113279191  0.3198141547750448
  0.9864392042047470  0.9145276794418769  0.3640432641798090
  0.0247255531795911  0.7999844482176929  0.3548190639020928
  0.8418140102889624  0.0619861570386870  0.3437320213063769
  0.8815607469586466  0.0913367235905442  0.2953040738932333
  0.1340737714295586  0.8091081685580924  0.2025030484849274
  0.2378103251401977  0.8604890975117514  0.1797911330796723
  0.8663000897598995  0.0157096638360953  0.4188156029258728
  0.8019898538142470  0.9298952370970511  0.3901880108774753
  0.2960291084106708  0.4056223392005683  0.5144049209068615
  0.2474393894335136  0.4136738076804438  0.4660974661738096
  0.0227407387300979  0.2718081179479317  0.5082510430769932
  0.1056532343723587  0.1794851531382561  0.5039240572464242
  0.6915989735147113  0.8368491130394514  0.3371841142224900
  0.6142691835425854  0.8693094652242526  0.3766596629463300
  0.8674320703685948  0.3569385217144084  0.4465477163350958
  0.8436640505563137  0.2397106799994951  0.4356798514050981
  0.4181025875400021  0.4771411164385737  0.2472072505764537
  0.3540909311322686  0.3680371042480264  0.2336176720902885
  0.3678619495690977  0.5156868195484475  0.3912824882885546
  0.4202519636259275  0.4433134962565857  0.4266000890178269
  0.2110571590692402  0.0891565906015814  0.3529885820465626
  0.3225116616724990  0.1081982320380233  0.3277348404046337
  0.1504472425046463  0.3947309245010800  0.4035836420442007
  0.1705675765841416  0.5143366194791346  0.4135020434589481
  0.3103013344135045  0.1270991247017581  0.4724416696816755
  0.2670701523675523  0.2420011626263733  0.4766597925822410
  0.7541229564180144  0.2371663464351700  0.2390918454162616
  0.7399253219139492  0.2237500668239506  0.1869956741267547
  0.5303672846872678  0.5861794298690485  0.3661298759002345
  0.5861142754647364  0.6923361394512079  0.3551414623870423
  0.0705490971437577  0.3173362015058183  0.3461201700979071
  0.1822835945153976  0.2533279848971520  0.3452117086573781
 
  0.00000000E+00  0.00000000E+00  0.00000000E+00
  0.00000000E+00  0.00000000E+00  0.00000000E+00
  0.00000000E+00  0.00000000E+00  0.00000000E+00
  0.00000000E+00  0.00000000E+00  0.00000000E+00
  0.00000000E+00  0.00000000E+00  0.00000000E+00
  0.00000000E+00  0.00000000E+00  0.00000000E+00
  0.00000000E+00  0.00000000E+00  0.00000000E+00
  0.00000000E+00  0.00000000E+00  0.00000000E+00
  0.00000000E+00  0.00000000E+00  0.00000000E+00
  0.00000000E+00  0.00000000E+00  0.00000000E+00
  0.00000000E+00  0.00000000E+00  0.00000000E+00
  0.00000000E+00  0.00000000E+00  0.00000000E+00
  0.00000000E+00  0.00000000E+00  0.00000000E+00
  0.00000000E+00  0.00000000E+00  0.00000000E+00
  0.00000000E+00  0.00000000E+00  0.00000000E+00
  0.00000000E+00  0.00000000E+00  0.00000000E+00
  0.00000000E+00  0.00000000E+00  0.00000000E+00
  0.00000000E+00  0.00000000E+00  0.00000000E+00
  0.00000000E+00  0.00000000E+00  0.00000000E+00
  0.00000000E+00  0.00000000E+00  0.00000000E+00
  0.00000000E+00  0.00000000E+00  0.00000000E+00
  0.00000000E+00  0.00000000E+00  0.00000000E+00
  0.00000000E+00  0.00000000E+00  0.00000000E+00
  0.00000000E+00  0.00000000E+00  0.00000000E+00
  0.00000000E+00  0.00000000E+00  0.00000000E+00
  0.00000000E+00  0.00000000E+00  0.00000000E+00
  0.00000000E+00  0.00000000E+00  0.00000000E+00
  0.00000000E+00  0.00000000E+00  0.00000000E+00
  0.00000000E+00  0.00000000E+00  0.00000000E+00
  0.00000000E+00  0.00000000E+00  0.00000000E+00
  0.00000000E+00  0.00000000E+00  0.00000000E+00
  0.00000000E+00  0.00000000E+00  0.00000000E+00
  0.00000000E+00  0.00000000E+00  0.00000000E+00
  0.00000000E+00  0.00000000E+00  0.00000000E+00
  0.00000000E+00  0.00000000E+00  0.00000000E+00
  0.00000000E+00  0.00000000E+00  0.00000000E+00
  0.00000000E+00  0.00000000E+00  0.00000000E+00
  0.00000000E+00  0.00000000E+00  0.00000000E+00
  0.00000000E+00  0.00000000E+00  0.00000000E+00
  0.00000000E+00  0.00000000E+00  0.00000000E+00
  0.00000000E+00  0.00000000E+00  0.00000000E+00
  0.00000000E+00  0.00000000E+00  0.00000000E+00
  0.00000000E+00  0.00000000E+00  0.00000000E+00
  0.00000000E+00  0.00000000E+00  0.00000000E+00
  0.00000000E+00  0.00000000E+00  0.00000000E+00
  0.00000000E+00  0.00000000E+00  0.00000000E+00
  0.00000000E+00  0.00000000E+00  0.00000000E+00
  0.00000000E+00  0.00000000E+00  0.00000000E+00
  0.00000000E+00  0.00000000E+00  0.00000000E+00
  0.00000000E+00  0.00000000E+00  0.00000000E+00
  0.00000000E+00  0.00000000E+00  0.00000000E+00
  0.00000000E+00  0.00000000E+00  0.00000000E+00
  0.00000000E+00  0.00000000E+00  0.00000000E+00
  0.00000000E+00  0.00000000E+00  0.00000000E+00
  0.00000000E+00  0.00000000E+00  0.00000000E+00
  0.00000000E+00  0.00000000E+00  0.00000000E+00
  0.00000000E+00  0.00000000E+00  0.00000000E+00
  0.00000000E+00  0.00000000E+00  0.00000000E+00
  0.00000000E+00  0.00000000E+00  0.00000000E+00
  0.00000000E+00  0.00000000E+00  0.00000000E+00
  0.00000000E+00  0.00000000E+00  0.00000000E+00
  0.00000000E+00  0.00000000E+00  0.00000000E+00
  0.00000000E+00  0.00000000E+00  0.00000000E+00
  0.00000000E+00  0.00000000E+00  0.00000000E+00
  0.00000000E+00  0.00000000E+00  0.00000000E+00
  0.00000000E+00  0.00000000E+00  0.00000000E+00
  0.00000000E+00  0.00000000E+00  0.00000000E+00
  0.00000000E+00  0.00000000E+00  0.00000000E+00
  0.00000000E+00  0.00000000E+00  0.00000000E+00
  0.00000000E+00  0.00000000E+00  0.00000000E+00
  0.00000000E+00  0.00000000E+00  0.00000000E+00
  0.00000000E+00  0.00000000E+00  0.00000000E+00
  0.00000000E+00  0.00000000E+00  0.00000000E+00
  0.00000000E+00  0.00000000E+00  0.00000000E+00
  0.00000000E+00  0.00000000E+00  0.00000000E+00
  0.00000000E+00  0.00000000E+00  0.00000000E+00
  0.00000000E+00  0.00000000E+00  0.00000000E+00
  0.00000000E+00  0.00000000E+00  0.00000000E+00
  0.00000000E+00  0.00000000E+00  0.00000000E+00
  0.00000000E+00  0.00000000E+00  0.00000000E+00
  0.00000000E+00  0.00000000E+00  0.00000000E+00
  0.00000000E+00  0.00000000E+00  0.00000000E+00
  0.00000000E+00  0.00000000E+00  0.00000000E+00
  0.00000000E+00  0.00000000E+00  0.00000000E+00
  0.00000000E+00  0.00000000E+00  0.00000000E+00
  0.00000000E+00  0.00000000E+00  0.00000000E+00
  0.00000000E+00  0.00000000E+00  0.00000000E+00
  0.00000000E+00  0.00000000E+00  0.00000000E+00
  0.00000000E+00  0.00000000E+00  0.00000000E+00
  0.00000000E+00  0.00000000E+00  0.00000000E+00
  0.00000000E+00  0.00000000E+00  0.00000000E+00
  0.00000000E+00  0.00000000E+00  0.00000000E+00
  0.00000000E+00  0.00000000E+00  0.00000000E+00
  0.00000000E+00  0.00000000E+00  0.00000000E+00
  0.00000000E+00  0.00000000E+00  0.00000000E+00
  0.00000000E+00  0.00000000E+00  0.00000000E+00
  0.00000000E+00  0.00000000E+00  0.00000000E+00
  0.00000000E+00  0.00000000E+00  0.00000000E+00
  0.00000000E+00  0.00000000E+00  0.00000000E+00
  0.00000000E+00  0.00000000E+00  0.00000000E+00
  0.00000000E+00  0.00000000E+00  0.00000000E+00
  0.00000000E+00  0.00000000E+00  0.00000000E+00
  0.00000000E+00  0.00000000E+00  0.00000000E+00
  0.00000000E+00  0.00000000E+00  0.00000000E+00
  0.00000000E+00  0.00000000E+00  0.00000000E+00
  0.00000000E+00  0.00000000E+00  0.00000000E+00
  0.00000000E+00  0.00000000E+00  0.00000000E+00
  0.00000000E+00  0.00000000E+00  0.00000000E+00
  0.00000000E+00  0.00000000E+00  0.00000000E+00
  0.00000000E+00  0.00000000E+00  0.00000000E+00
  0.00000000E+00  0.00000000E+00  0.00000000E+00
  0.00000000E+00  0.00000000E+00  0.00000000E+00
  0.00000000E+00  0.00000000E+00  0.00000000E+00
  0.00000000E+00  0.00000000E+00  0.00000000E+00
  0.00000000E+00  0.00000000E+00  0.00000000E+00
  0.00000000E+00  0.00000000E+00  0.00000000E+00
  0.00000000E+00  0.00000000E+00  0.00000000E+00
  0.00000000E+00  0.00000000E+00  0.00000000E+00
  0.00000000E+00  0.00000000E+00  0.00000000E+00
  0.00000000E+00  0.00000000E+00  0.00000000E+00
  0.00000000E+00  0.00000000E+00  0.00000000E+00
  0.00000000E+00  0.00000000E+00  0.00000000E+00
  0.00000000E+00  0.00000000E+00  0.00000000E+00
  0.00000000E+00  0.00000000E+00  0.00000000E+00
  0.00000000E+00  0.00000000E+00  0.00000000E+00
  0.00000000E+00  0.00000000E+00  0.00000000E+00
  0.00000000E+00  0.00000000E+00  0.00000000E+00
  0.00000000E+00  0.00000000E+00  0.00000000E+00
  0.00000000E+00  0.00000000E+00  0.00000000E+00
  0.00000000E+00  0.00000000E+00  0.00000000E+00
  0.00000000E+00  0.00000000E+00  0.00000000E+00
  0.00000000E+00  0.00000000E+00  0.00000000E+00
  0.00000000E+00  0.00000000E+00  0.00000000E+00
  0.00000000E+00  0.00000000E+00  0.00000000E+00
  0.00000000E+00  0.00000000E+00  0.00000000E+00
  0.00000000E+00  0.00000000E+00  0.00000000E+00
  0.00000000E+00  0.00000000E+00  0.00000000E+00
  0.00000000E+00  0.00000000E+00  0.00000000E+00
  0.00000000E+00  0.00000000E+00  0.00000000E+00
  0.00000000E+00  0.00000000E+00  0.00000000E+00
  0.00000000E+00  0.00000000E+00  0.00000000E+00
  0.00000000E+00  0.00000000E+00  0.00000000E+00
  0.00000000E+00  0.00000000E+00  0.00000000E+00
  0.00000000E+00  0.00000000E+00  0.00000000E+00
  0.00000000E+00  0.00000000E+00  0.00000000E+00
  0.00000000E+00  0.00000000E+00  0.00000000E+00
  0.00000000E+00  0.00000000E+00  0.00000000E+00
  0.00000000E+00  0.00000000E+00  0.00000000E+00
  0.00000000E+00  0.00000000E+00  0.00000000E+00
  0.00000000E+00  0.00000000E+00  0.00000000E+00
  0.00000000E+00  0.00000000E+00  0.00000000E+00
  0.00000000E+00  0.00000000E+00  0.00000000E+00
  0.00000000E+00  0.00000000E+00  0.00000000E+00
  0.00000000E+00  0.00000000E+00  0.00000000E+00
  0.00000000E+00  0.00000000E+00  0.00000000E+00
  0.00000000E+00  0.00000000E+00  0.00000000E+00
  0.00000000E+00  0.00000000E+00  0.00000000E+00
  0.00000000E+00  0.00000000E+00  0.00000000E+00
  0.00000000E+00  0.00000000E+00  0.00000000E+00
  0.00000000E+00  0.00000000E+00  0.00000000E+00
  0.00000000E+00  0.00000000E+00  0.00000000E+00
  0.00000000E+00  0.00000000E+00  0.00000000E+00
  0.00000000E+00  0.00000000E+00  0.00000000E+00
  0.00000000E+00  0.00000000E+00  0.00000000E+00
  0.00000000E+00  0.00000000E+00  0.00000000E+00
  0.00000000E+00  0.00000000E+00  0.00000000E+00
  0.00000000E+00  0.00000000E+00  0.00000000E+00
  0.00000000E+00  0.00000000E+00  0.00000000E+00
  0.00000000E+00  0.00000000E+00  0.00000000E+00
  0.00000000E+00  0.00000000E+00  0.00000000E+00
  0.00000000E+00  0.00000000E+00  0.00000000E+00
  0.00000000E+00  0.00000000E+00  0.00000000E+00
  0.00000000E+00  0.00000000E+00  0.00000000E+00
  0.00000000E+00  0.00000000E+00  0.00000000E+00
  0.00000000E+00  0.00000000E+00  0.00000000E+00
  0.00000000E+00  0.00000000E+00  0.00000000E+00
  0.00000000E+00  0.00000000E+00  0.00000000E+00
  0.00000000E+00  0.00000000E+00  0.00000000E+00
  0.00000000E+00  0.00000000E+00  0.00000000E+00
  0.00000000E+00  0.00000000E+00  0.00000000E+00
  0.00000000E+00  0.00000000E+00  0.00000000E+00
  0.00000000E+00  0.00000000E+00  0.00000000E+00
  0.00000000E+00  0.00000000E+00  0.00000000E+00
  0.00000000E+00  0.00000000E+00  0.00000000E+00
  0.00000000E+00  0.00000000E+00  0.00000000E+00
  0.00000000E+00  0.00000000E+00  0.00000000E+00
  0.00000000E+00  0.00000000E+00  0.00000000E+00
  0.00000000E+00  0.00000000E+00  0.00000000E+00
  0.00000000E+00  0.00000000E+00  0.00000000E+00
  0.00000000E+00  0.00000000E+00  0.00000000E+00
  0.00000000E+00  0.00000000E+00  0.00000000E+00
  0.00000000E+00  0.00000000E+00  0.00000000E+00
  0.00000000E+00  0.00000000E+00  0.00000000E+00
  0.00000000E+00  0.00000000E+00  0.00000000E+00
  0.00000000E+00  0.00000000E+00  0.00000000E+00
