 C  N Ni  O  H                          
   1.00000000000000     
    12.4553732999999998    0.0000000000000000    0.0000000000000000
     0.0000000000000000   12.7322628600000005    0.0000000000000000
     0.0000000000000000    0.0000000000000000   20.0000000000000000
   C    N    Ni   O    H 
    54     4     1    46    92
Direct
  0.0512524176775955  0.0486650981398089  0.1589495047943412
  0.1518129805353790  0.1038125251606462  0.1587647124272966
  0.1511863864117893  0.2150728943870836  0.1576914381516153
  0.0512223780797964  0.2702107944940329  0.1568724361162879
  0.2526725671828630  0.0494535574215865  0.1591364964136927
  0.3528699716763030  0.1059893011045915  0.1593925007910117
  0.3518799606131566  0.2181415926577276  0.1585552576595981
  0.2505225159921495  0.2707466229666679  0.1573637432346738
  0.4528940428394038  0.0498523127925646  0.1598826109492571
  0.5512378563783795  0.1090014316048063  0.1600279841084268
  0.5512180662843993  0.2232683222899294  0.1592996952024518
  0.4501738958940473  0.2793576005730067  0.1584365526765274
  0.6494811113077992  0.0496833757161958  0.1602486048942087
  0.7495705835267554  0.1058763958053399  0.1601049036957831
  0.7506096520736613  0.2182374108509754  0.1593469743770243
  0.6522274017375247  0.2795607543047927  0.1587000648863383
  0.8497871398019031  0.0492655675503114  0.1597737224886987
  0.9506318879694675  0.1037887822103453  0.1591012463573495
  0.9512899010518754  0.2150577473607580  0.1581082509622644
  0.8520364241161233  0.2709079826423489  0.1581777823254930
  0.0511334385139330  0.3812178432701305  0.1555902883481426
  0.1496702101786885  0.4375309649618372  0.1548870126015200
  0.1496908305819027  0.5489056433669330  0.1546021523218423
  0.0511819716115471  0.6052451276204512  0.1552219228354951
  0.2489586566825888  0.3820968510628761  0.1557823166144474
  0.3468239102931736  0.4376503419515638  0.1559280577991354
  0.3468148952247690  0.5488259203950049  0.1554100753338762
  0.2489560884671683  0.6043214911662198  0.1549820600542005
  0.7557121231084869  0.4377209706583340  0.1564734657991907
  0.7556761225107284  0.5489591938892907  0.1556001878707788
  0.8535909166824002  0.3822842949167535  0.1568125278459883
  0.9527525832693228  0.4376678491618248  0.1557051561102192
  0.9527199044775589  0.5488684653016983  0.1553944573589139
  0.8535613321813041  0.6043881514531085  0.1557125200178209
  0.0512001815124422  0.7163350081104287  0.1562564042621540
  0.1512116973796283  0.7715033569128441  0.1567215107023619
  0.0511934484033491  0.9379304386038279  0.1586469692723856
  0.2504991933791769  0.7156957651409670  0.1561137776636797
  0.3519548939565865  0.7683244503454350  0.1571711348099941
  0.3529367829371771  0.8806794047963291  0.1583754370903473
  0.2526139470951334  0.9373396254673320  0.1585602538972895
  0.4503532791651094  0.7071027557745895  0.1571337093869150
  0.5512836315285727  0.7632499912785833  0.1578060223108710
  0.5512504567276159  0.8775066847123275  0.1590980588675794
  0.4530188526383610  0.9368340307559845  0.1594005166992079
  0.6523727768465499  0.7070276483695506  0.1567667279101898
  0.7506005359192196  0.7683334742297904  0.1574721288861714
  0.7495456215770405  0.8805127627589472  0.1590419919062322
  0.6495577618424506  0.9366745605738287  0.1597332330560579
  0.8519006721810700  0.7157401295688955  0.1565718606334629
  0.9511826266979856  0.7714970485727022  0.1571500780166836
  0.8496704691100142  0.9371396970957609  0.1593610759954369
  0.1517716879338283  0.8828140246043996  0.1579982991896967
  0.9505645041116976  0.8827290277448843  0.1585096691957490
  0.4454268330152497  0.3874607105055983  0.1573022122313530
  0.4454445371030467  0.5990462674545195  0.1563909271180763
  0.6571430816120000  0.3875164145067272  0.1571655245266489
  0.6572323085405400  0.5991779942970267  0.1551908550721510
  0.5513475427774399  0.4933983351578998  0.1568053675639256
  0.6049944644110874  0.6118180824658273  0.3094388915265482
  0.0156796809092861  0.3084566348957616  0.3300324994781567
  0.9931184316920537  0.1717102343437551  0.5574122529097980
  0.5769302036702837  0.3949434909325740  0.3282853729798075
  0.8761557110885612  0.8813488414557430  0.4759883603004748
  0.8003347149214991  0.7053734038743621  0.3304456211431832
  0.4956515090581562  0.3906086066960721  0.7123882180564522
  0.9116343218809341  0.7094012936374161  0.6545585308766969
  0.2028449901996170  0.2175825781221178  0.3906175984101261
  0.9159471524120238  0.6145297858631429  0.5239540837653037
  0.6441054060148064  0.5656973974757830  0.5272883305065033
  0.6309265219731651  0.9379464477839509  0.4077560800242049
  0.2887340802132752  0.8424149590864687  0.3212005243768490
  0.4196098770668851  0.5519287001432767  0.4780573687532281
  0.0880851338035763  0.8235451643613995  0.6972135839283651
  0.2209034986778000  0.2752812216382072  0.7000387322384356
  0.0663583061633815  0.7594237351052956  0.4781129345602531
  0.0423347424822003  0.4092168459667198  0.5147551262012406
  0.8239457895339408  0.1565914597692842  0.3302433894968494
  0.5210039889290460  0.8966993134541003  0.5918872888314912
  0.1567438008343886  0.5667025951569583  0.4349609498520905
  0.8145376452662334  0.3894744376239403  0.5136617454727898
  0.5143211129762029  0.2088420782870797  0.4892499074601566
  0.8962312503474272  0.9447496628434057  0.3442586018076968
  0.6839329417177904  0.6202427809420011  0.6694100744280119
  0.4150973963504652  0.9856782241489497  0.3880723354005876
  0.2097624548224575  0.8156243809482774  0.5795999001149154
  0.4233132265084787  0.2004391891499935  0.3437520391440377
  0.4780293232227015  0.7233907617248885  0.6831483291349684
  0.1103391317200876 -0.0026274916754616  0.3335792555664254
  0.5816226925586653  0.1154737902177823  0.6052949814721560
  0.6957746229840361  0.2780884186238530  0.4213169258637928
  0.0368242741885051  0.1426899344725431  0.6888933728714658
  0.8941433475820660  0.2698789958325753  0.7745356710430910
  0.9137170045350625  0.5105292822050483  0.3681403448562588
  0.6658700426898568  0.7827857004532205  0.5000332522218844
  0.4376276803190858  0.1838711642350473  0.7086309645853549
  0.3273833523240596  0.6272793033632915  0.6020481495112396
  0.7966735502867458  0.0771890202819036  0.5165522915436846
  0.3824124233298618  0.6514720145147356  0.3479886212231436
  0.3339954117136113  0.3441771607777507  0.4840870421821183
  0.7179322104484804  0.4166424215137227  0.7334920987155764
  0.6845534841276002  0.3093438700557194  0.6156357651324672
  0.2423241053882832  0.4925786879367758  0.3134362916771324
  0.3279597912881083 -0.0193467031525250  0.5254876013847813
  0.2232824470028031  0.4169286254142622  0.5972486170127498
  0.5980849522561699  0.5348704620494448  0.3140670954122879
  0.5321884778891687  0.6381447763217974  0.3175945764022490
  0.9811000264670542  0.3755981123678477  0.3411736266126766
  0.9570775303101886  0.2570710339538637  0.3291237782040203
  0.0114622455677659  0.2356144808326403  0.5329270105160082
  0.9229033094068522  0.1469428749947575  0.5404106299676509
  0.6231822217390000  0.3573350924804695  0.3604818629169441
  0.5211921224301407  0.3447389654901735  0.3159997227244540
  0.8726915596039674  0.9003225041630166  0.4277081596011780
  0.8132439241121061  0.8371027906522530  0.4862714128893803
  0.7942398603968688  0.7263419345000026  0.3770896172886761
  0.7275343149833140  0.6760789476684174  0.3204275408253411
  0.5649701511208708  0.4096029914220868  0.7330337033174206
  0.4449572590893559  0.4461692629036375  0.7231881844122058
  0.8388279584993025  0.6940865530981243  0.6702529947890425
  0.9139018092827103  0.6773004758067162  0.6095758404072009
  0.1445185953734069  0.2565737928444735  0.3678839425653322
  0.2658074284845275  0.2193574237183142  0.3608398608680554
  0.9740700402122034  0.6611378977551540  0.5073847931133877
  0.9513958328263348  0.5469108875375045  0.5314569086354468
  0.7070905134817888  0.5242509844106436  0.5141122050508784
  0.6582361952278615  0.6380395392532058  0.5110694601496582
  0.6626460546669088 -0.0006576520883077  0.4292441483028476
  0.5542779185330055  0.9561514444810499  0.3999097835983484
  0.3168824313368796  0.7719146812083280  0.3344415009461847
  0.3016307151801269  0.8468075308398374  0.2731838739313205
  0.4974418403892692  0.5493850062011365  0.4872951657088390
  0.3969131466288074  0.4779094151964403  0.4723017674968379
  0.0225521512675654  0.7822606951265555  0.6856217919307475
  0.1258949162672699  0.7809449185149808  0.7300647450166312
  0.2856628276575420  0.2314597644433512  0.7006731515080926
  0.1595328968343845  0.2261693726540800  0.6981077662653201
  0.0071576563256984  0.8110216062948399  0.4753830557634365
  0.1144283801249407  0.7835893554317599  0.5145790303181990
  0.0748072733643784  0.4471444172425653  0.4769459805644070
  0.0982803046207847  0.4143775250354370  0.5499177823087591
  0.7912778462246173  0.1640109082576100  0.2861945380875257
  0.8420776963581581  0.0810773056988745  0.3338717858570702
  0.5543772256104510  0.9650314615685986  0.6019615911884754
  0.4555241909980108  0.9179923847012802  0.5677612459783735
  0.2291219751377044  0.5779786348005493  0.4520045131395321
  0.1213324250532809  0.6357543872030595  0.4393448234734509
  0.8934325779499498  0.3879063947462276  0.5161765744607967
  0.7871271533989177  0.3534245256500355  0.5537473586379225
  0.4587600477147188  0.2641926762170287  0.4920627906678272
  0.5796954252210954  0.2384666458875589  0.4676155293949608
  0.8743071114936035  0.8866448098682327  0.3153968520787815
  0.9749846740052331  0.9560251803706462  0.3380687390043414
  0.7015283211244142  0.5556939391745654  0.6942508913419557
  0.6747300646641992  0.5976307509978221  0.6225328082108668
  0.3807068434193021 -0.0105934275190403  0.4322830062182813
  0.3728619448230947  0.9324878063898414  0.3629158464393917
  0.2533624500731712  0.7510032683082100  0.5860346600142567
  0.1685024920997918  0.8233549705763479  0.6219393515852493
  0.4504101208918103  0.2104883175953481  0.3892840470741722
  0.4214595776544994  0.1231885114332969  0.3417572226599031
  0.5485837853694074  0.6879725193624410  0.6841526217015497
  0.4915645990923113  0.7890363826236316  0.6584238082114864
  0.1658323818712750  0.9431050064754078  0.3374810561007701
  0.1382305457371706  0.0598999311519666  0.3563705493794312
  0.5489183693143953  0.1434199473325679  0.5630378916484167
  0.5292641569658693  0.1316948497408436  0.6410429312420143
  0.7387118559753393  0.2270634126838347  0.3955344942460125
  0.7474703781753870  0.3168220404097688  0.4499345234248849
  0.0441285659006641  0.0672689380867157  0.6959349914198257
  0.0186188359966341  0.1515788646103567  0.6403325476173726
  0.9067156747590501  0.2406076841845354  0.8187115913943402
  0.9396780816572975  0.2273741136057638  0.7446235379989143
  0.8980129722650351  0.5246683405537814  0.4150695667287024
  0.8800262277682348  0.5703267234297306  0.3448962605397115
  0.6246368484747198  0.8131532737120547  0.5373838694801949
  0.6443283799268540  0.8293176271516576  0.4620866661963281
  0.4461176833310201  0.1495582038495060  0.7517683218413999
  0.4605367491870974  0.2582922697699352  0.7155492584157319
  0.3843656522749521  0.6554612534758038  0.6324802731690905
  0.3653818585685285  0.6058774162724343  0.5608678233856087
  0.8259087581449901  0.0056574937777670  0.5086369487207660
  0.7452757416979342  0.0703561662080867  0.5530713636000655
  0.3988346535367683  0.6248215115386830  0.3931208782880431
  0.3377563472804483  0.5949090798101334  0.3277827938875070
  0.2832313062641100  0.3084300994954933  0.4534669839131305
  0.2929742040545719  0.3613941064311183  0.5251634442654679
  0.7771734918416753  0.3879087080570453  0.7600209459068524
  0.7177833959412721  0.3711810829515785  0.6932367345027266
  0.6606202075152531  0.2348358826530989  0.6152482230012357
  0.6198543662820803  0.3484153994023682  0.6039021509076119
  0.2025996096631838  0.4826997620117607  0.2720198141380167
  0.1891331050217112  0.5131036008023878  0.3474318934777623
  0.2985233369080891  0.0491784158825465  0.5369005703507214
  0.2769688173228740  0.9278812508709035  0.5439491128404749
  0.2235087695130403  0.3695608653040092  0.6371076474235084
  0.2530182119664233  0.4855069000718472  0.6103757170607322
 
  0.00000000E+00  0.00000000E+00  0.00000000E+00
  0.00000000E+00  0.00000000E+00  0.00000000E+00
  0.00000000E+00  0.00000000E+00  0.00000000E+00
  0.00000000E+00  0.00000000E+00  0.00000000E+00
  0.00000000E+00  0.00000000E+00  0.00000000E+00
  0.00000000E+00  0.00000000E+00  0.00000000E+00
  0.00000000E+00  0.00000000E+00  0.00000000E+00
  0.00000000E+00  0.00000000E+00  0.00000000E+00
  0.00000000E+00  0.00000000E+00  0.00000000E+00
  0.00000000E+00  0.00000000E+00  0.00000000E+00
  0.00000000E+00  0.00000000E+00  0.00000000E+00
  0.00000000E+00  0.00000000E+00  0.00000000E+00
  0.00000000E+00  0.00000000E+00  0.00000000E+00
  0.00000000E+00  0.00000000E+00  0.00000000E+00
  0.00000000E+00  0.00000000E+00  0.00000000E+00
  0.00000000E+00  0.00000000E+00  0.00000000E+00
  0.00000000E+00  0.00000000E+00  0.00000000E+00
  0.00000000E+00  0.00000000E+00  0.00000000E+00
  0.00000000E+00  0.00000000E+00  0.00000000E+00
  0.00000000E+00  0.00000000E+00  0.00000000E+00
  0.00000000E+00  0.00000000E+00  0.00000000E+00
  0.00000000E+00  0.00000000E+00  0.00000000E+00
  0.00000000E+00  0.00000000E+00  0.00000000E+00
  0.00000000E+00  0.00000000E+00  0.00000000E+00
  0.00000000E+00  0.00000000E+00  0.00000000E+00
  0.00000000E+00  0.00000000E+00  0.00000000E+00
  0.00000000E+00  0.00000000E+00  0.00000000E+00
  0.00000000E+00  0.00000000E+00  0.00000000E+00
  0.00000000E+00  0.00000000E+00  0.00000000E+00
  0.00000000E+00  0.00000000E+00  0.00000000E+00
  0.00000000E+00  0.00000000E+00  0.00000000E+00
  0.00000000E+00  0.00000000E+00  0.00000000E+00
  0.00000000E+00  0.00000000E+00  0.00000000E+00
  0.00000000E+00  0.00000000E+00  0.00000000E+00
  0.00000000E+00  0.00000000E+00  0.00000000E+00
  0.00000000E+00  0.00000000E+00  0.00000000E+00
  0.00000000E+00  0.00000000E+00  0.00000000E+00
  0.00000000E+00  0.00000000E+00  0.00000000E+00
  0.00000000E+00  0.00000000E+00  0.00000000E+00
  0.00000000E+00  0.00000000E+00  0.00000000E+00
  0.00000000E+00  0.00000000E+00  0.00000000E+00
  0.00000000E+00  0.00000000E+00  0.00000000E+00
  0.00000000E+00  0.00000000E+00  0.00000000E+00
  0.00000000E+00  0.00000000E+00  0.00000000E+00
  0.00000000E+00  0.00000000E+00  0.00000000E+00
  0.00000000E+00  0.00000000E+00  0.00000000E+00
  0.00000000E+00  0.00000000E+00  0.00000000E+00
  0.00000000E+00  0.00000000E+00  0.00000000E+00
  0.00000000E+00  0.00000000E+00  0.00000000E+00
  0.00000000E+00  0.00000000E+00  0.00000000E+00
  0.00000000E+00  0.00000000E+00  0.00000000E+00
  0.00000000E+00  0.00000000E+00  0.00000000E+00
  0.00000000E+00  0.00000000E+00  0.00000000E+00
  0.00000000E+00  0.00000000E+00  0.00000000E+00
  0.00000000E+00  0.00000000E+00  0.00000000E+00
  0.00000000E+00  0.00000000E+00  0.00000000E+00
  0.00000000E+00  0.00000000E+00  0.00000000E+00
  0.00000000E+00  0.00000000E+00  0.00000000E+00
  0.00000000E+00  0.00000000E+00  0.00000000E+00
  0.00000000E+00  0.00000000E+00  0.00000000E+00
  0.00000000E+00  0.00000000E+00  0.00000000E+00
  0.00000000E+00  0.00000000E+00  0.00000000E+00
  0.00000000E+00  0.00000000E+00  0.00000000E+00
  0.00000000E+00  0.00000000E+00  0.00000000E+00
  0.00000000E+00  0.00000000E+00  0.00000000E+00
  0.00000000E+00  0.00000000E+00  0.00000000E+00
  0.00000000E+00  0.00000000E+00  0.00000000E+00
  0.00000000E+00  0.00000000E+00  0.00000000E+00
  0.00000000E+00  0.00000000E+00  0.00000000E+00
  0.00000000E+00  0.00000000E+00  0.00000000E+00
  0.00000000E+00  0.00000000E+00  0.00000000E+00
  0.00000000E+00  0.00000000E+00  0.00000000E+00
  0.00000000E+00  0.00000000E+00  0.00000000E+00
  0.00000000E+00  0.00000000E+00  0.00000000E+00
  0.00000000E+00  0.00000000E+00  0.00000000E+00
  0.00000000E+00  0.00000000E+00  0.00000000E+00
  0.00000000E+00  0.00000000E+00  0.00000000E+00
  0.00000000E+00  0.00000000E+00  0.00000000E+00
  0.00000000E+00  0.00000000E+00  0.00000000E+00
  0.00000000E+00  0.00000000E+00  0.00000000E+00
  0.00000000E+00  0.00000000E+00  0.00000000E+00
  0.00000000E+00  0.00000000E+00  0.00000000E+00
  0.00000000E+00  0.00000000E+00  0.00000000E+00
  0.00000000E+00  0.00000000E+00  0.00000000E+00
  0.00000000E+00  0.00000000E+00  0.00000000E+00
  0.00000000E+00  0.00000000E+00  0.00000000E+00
  0.00000000E+00  0.00000000E+00  0.00000000E+00
  0.00000000E+00  0.00000000E+00  0.00000000E+00
  0.00000000E+00  0.00000000E+00  0.00000000E+00
  0.00000000E+00  0.00000000E+00  0.00000000E+00
  0.00000000E+00  0.00000000E+00  0.00000000E+00
  0.00000000E+00  0.00000000E+00  0.00000000E+00
  0.00000000E+00  0.00000000E+00  0.00000000E+00
  0.00000000E+00  0.00000000E+00  0.00000000E+00
  0.00000000E+00  0.00000000E+00  0.00000000E+00
  0.00000000E+00  0.00000000E+00  0.00000000E+00
  0.00000000E+00  0.00000000E+00  0.00000000E+00
  0.00000000E+00  0.00000000E+00  0.00000000E+00
  0.00000000E+00  0.00000000E+00  0.00000000E+00
  0.00000000E+00  0.00000000E+00  0.00000000E+00
  0.00000000E+00  0.00000000E+00  0.00000000E+00
  0.00000000E+00  0.00000000E+00  0.00000000E+00
  0.00000000E+00  0.00000000E+00  0.00000000E+00
  0.00000000E+00  0.00000000E+00  0.00000000E+00
  0.00000000E+00  0.00000000E+00  0.00000000E+00
  0.00000000E+00  0.00000000E+00  0.00000000E+00
  0.00000000E+00  0.00000000E+00  0.00000000E+00
  0.00000000E+00  0.00000000E+00  0.00000000E+00
  0.00000000E+00  0.00000000E+00  0.00000000E+00
  0.00000000E+00  0.00000000E+00  0.00000000E+00
  0.00000000E+00  0.00000000E+00  0.00000000E+00
  0.00000000E+00  0.00000000E+00  0.00000000E+00
  0.00000000E+00  0.00000000E+00  0.00000000E+00
  0.00000000E+00  0.00000000E+00  0.00000000E+00
  0.00000000E+00  0.00000000E+00  0.00000000E+00
  0.00000000E+00  0.00000000E+00  0.00000000E+00
  0.00000000E+00  0.00000000E+00  0.00000000E+00
  0.00000000E+00  0.00000000E+00  0.00000000E+00
  0.00000000E+00  0.00000000E+00  0.00000000E+00
  0.00000000E+00  0.00000000E+00  0.00000000E+00
  0.00000000E+00  0.00000000E+00  0.00000000E+00
  0.00000000E+00  0.00000000E+00  0.00000000E+00
  0.00000000E+00  0.00000000E+00  0.00000000E+00
  0.00000000E+00  0.00000000E+00  0.00000000E+00
  0.00000000E+00  0.00000000E+00  0.00000000E+00
  0.00000000E+00  0.00000000E+00  0.00000000E+00
  0.00000000E+00  0.00000000E+00  0.00000000E+00
  0.00000000E+00  0.00000000E+00  0.00000000E+00
  0.00000000E+00  0.00000000E+00  0.00000000E+00
  0.00000000E+00  0.00000000E+00  0.00000000E+00
  0.00000000E+00  0.00000000E+00  0.00000000E+00
  0.00000000E+00  0.00000000E+00  0.00000000E+00
  0.00000000E+00  0.00000000E+00  0.00000000E+00
  0.00000000E+00  0.00000000E+00  0.00000000E+00
  0.00000000E+00  0.00000000E+00  0.00000000E+00
  0.00000000E+00  0.00000000E+00  0.00000000E+00
  0.00000000E+00  0.00000000E+00  0.00000000E+00
  0.00000000E+00  0.00000000E+00  0.00000000E+00
  0.00000000E+00  0.00000000E+00  0.00000000E+00
  0.00000000E+00  0.00000000E+00  0.00000000E+00
  0.00000000E+00  0.00000000E+00  0.00000000E+00
  0.00000000E+00  0.00000000E+00  0.00000000E+00
  0.00000000E+00  0.00000000E+00  0.00000000E+00
  0.00000000E+00  0.00000000E+00  0.00000000E+00
  0.00000000E+00  0.00000000E+00  0.00000000E+00
  0.00000000E+00  0.00000000E+00  0.00000000E+00
  0.00000000E+00  0.00000000E+00  0.00000000E+00
  0.00000000E+00  0.00000000E+00  0.00000000E+00
  0.00000000E+00  0.00000000E+00  0.00000000E+00
  0.00000000E+00  0.00000000E+00  0.00000000E+00
  0.00000000E+00  0.00000000E+00  0.00000000E+00
  0.00000000E+00  0.00000000E+00  0.00000000E+00
  0.00000000E+00  0.00000000E+00  0.00000000E+00
  0.00000000E+00  0.00000000E+00  0.00000000E+00
  0.00000000E+00  0.00000000E+00  0.00000000E+00
  0.00000000E+00  0.00000000E+00  0.00000000E+00
  0.00000000E+00  0.00000000E+00  0.00000000E+00
  0.00000000E+00  0.00000000E+00  0.00000000E+00
  0.00000000E+00  0.00000000E+00  0.00000000E+00
  0.00000000E+00  0.00000000E+00  0.00000000E+00
  0.00000000E+00  0.00000000E+00  0.00000000E+00
  0.00000000E+00  0.00000000E+00  0.00000000E+00
  0.00000000E+00  0.00000000E+00  0.00000000E+00
  0.00000000E+00  0.00000000E+00  0.00000000E+00
  0.00000000E+00  0.00000000E+00  0.00000000E+00
  0.00000000E+00  0.00000000E+00  0.00000000E+00
  0.00000000E+00  0.00000000E+00  0.00000000E+00
  0.00000000E+00  0.00000000E+00  0.00000000E+00
  0.00000000E+00  0.00000000E+00  0.00000000E+00
  0.00000000E+00  0.00000000E+00  0.00000000E+00
  0.00000000E+00  0.00000000E+00  0.00000000E+00
  0.00000000E+00  0.00000000E+00  0.00000000E+00
  0.00000000E+00  0.00000000E+00  0.00000000E+00
  0.00000000E+00  0.00000000E+00  0.00000000E+00
  0.00000000E+00  0.00000000E+00  0.00000000E+00
  0.00000000E+00  0.00000000E+00  0.00000000E+00
  0.00000000E+00  0.00000000E+00  0.00000000E+00
  0.00000000E+00  0.00000000E+00  0.00000000E+00
  0.00000000E+00  0.00000000E+00  0.00000000E+00
  0.00000000E+00  0.00000000E+00  0.00000000E+00
  0.00000000E+00  0.00000000E+00  0.00000000E+00
  0.00000000E+00  0.00000000E+00  0.00000000E+00
  0.00000000E+00  0.00000000E+00  0.00000000E+00
  0.00000000E+00  0.00000000E+00  0.00000000E+00
  0.00000000E+00  0.00000000E+00  0.00000000E+00
  0.00000000E+00  0.00000000E+00  0.00000000E+00
  0.00000000E+00  0.00000000E+00  0.00000000E+00
  0.00000000E+00  0.00000000E+00  0.00000000E+00
  0.00000000E+00  0.00000000E+00  0.00000000E+00
  0.00000000E+00  0.00000000E+00  0.00000000E+00
  0.00000000E+00  0.00000000E+00  0.00000000E+00
  0.00000000E+00  0.00000000E+00  0.00000000E+00
  0.00000000E+00  0.00000000E+00  0.00000000E+00
  0.00000000E+00  0.00000000E+00  0.00000000E+00
  0.00000000E+00  0.00000000E+00  0.00000000E+00
  0.00000000E+00  0.00000000E+00  0.00000000E+00
  0.00000000E+00  0.00000000E+00  0.00000000E+00
