 C  N Ni  O  H                          
   1.00000000000000     
    12.4553732999999998    0.0000000000000000    0.0000000000000000
     0.0000000000000000   12.7322628600000005    0.0000000000000000
     0.0000000000000000    0.0000000000000000   30.0000000000000000
   C    N    Ni   O    H 
    54     4     1    46    91
Direct
  0.9408127418257841  0.1350137318809039  0.1080279417208507
  0.0413455642597137  0.1898856876663574  0.1077115747468171
  0.0406375604442944  0.3010730478420068  0.1077946884724947
  0.9408459547468853  0.3561271132146608  0.1077534935351243
  0.1421902112678023  0.1354105743032976  0.1073966557463415
  0.2421585702501924  0.1917534518285720  0.1080371634129522
  0.2410825678520871  0.3041721536126214  0.1084005729443253
  0.1400774754505161  0.3568102486547171  0.1080032483619456
  0.3420923617071257  0.1359660172049191  0.1087212199805265
  0.4407329840924281  0.1951564213595667  0.1095980819916495
  0.4407425990588763  0.3093824247140389  0.1099933742898658
  0.3393013447668509  0.3651177016023979  0.1095243416571390
  0.5393477625792660  0.1359363748587971  0.1095672943360644
  0.6393601054716443  0.1917514880198442  0.1093795219993827
  0.6405232718561322  0.3042167131519791  0.1092032444489700
  0.5422189996629030  0.3651799776899737  0.1097478667019900
  0.7394425041407255  0.1354644141950623  0.1089553745087066
  0.8403425105668368  0.1899227879891815  0.1084820718178374
  0.8410363220677209  0.3011358218814644  0.1082148058434101
  0.7415831209044735  0.3568963359773061  0.1084089934124489
  0.9408047958550800  0.4676914366722094  0.1073280009619391
  0.0392887240379845  0.5237365049731835  0.1073506350719609
  0.0393309356278453  0.6349639726513094  0.1071379802576091
  0.9408720541880274  0.6908983128432289  0.1071165774511149
  0.1383828704012640  0.4680578932440526  0.1079919598120665
  0.2364602915932980  0.5232435466938313  0.1086693873859488
  0.2363828501009836  0.6355812639093089  0.1082304428294115
  0.1383549534873775  0.6906524071055241  0.1074138003983181
  0.6451222347992100  0.5231704873933546  0.1083046361884235
  0.6450943492274808  0.6354564240119875  0.1078956313085880
  0.7432325463338737  0.4681176088457963  0.1078329758144508
  0.8423377581575876  0.5236219398403317  0.1072591776017745
  0.8424247010988907  0.6348520745061750  0.1072311285076525
  0.7432738662701687  0.6904543212176169  0.1075299096928467
  0.9408909395166926  0.8025363184439708  0.1072786428176855
  0.0406954106934778  0.8577298769486720  0.1071165754339883
  0.9408258499512446  0.0240152943458665  0.1078030677522210
  0.1401259528905292  0.8019283717034587  0.1072749047301907
  0.2410890687023616  0.8547208684412110  0.1076510421591910
  0.2422117575330793  0.9671017700732678  0.1074837804522240
  0.1422401351049866  0.0235022296255525  0.1070746493891943
  0.3393709956718158  0.7937714599284879  0.1085303214665338
  0.4407081740621042  0.8495126361147342  0.1087952167753874
  0.4407131502875472  0.9636123216366161  0.1088942458348590
  0.3421867803385090  0.0227435756915466  0.1083895681995875
  0.5420299941596038  0.7937036016634247  0.1085383666715541
  0.6403886823296261  0.8547093921521053  0.1083842696200952
  0.6392745611485472  0.9671538607623050  0.1089000662643699
  0.5392444005300875  0.0227794998253306  0.1092250416875301
  0.7415413814836022  0.8018581162023818  0.1077467366239828
  0.8410667185915043  0.8576970881465131  0.1077171253646644
  0.7393509583262369  0.0235007361054791  0.1087781237202814
  0.0414000710877356  0.9690124956401991  0.1071434727547265
  0.8402889161198746  0.9690131251100794  0.1081605746361945
  0.3341331044071545  0.4733958790122938  0.1096758871489547
  0.3340074472507746  0.6856034060702615  0.1087861468591024
  0.5475108450408205  0.4732993483543098  0.1093335352934977
  0.5475315524910386  0.6856302898289410  0.1080407464874928
  0.4408845934932108  0.5795011994478541  0.1130636216757582
  0.9000040808837307  0.7877667615383394  0.4164551896241332
  0.5047667251756389  0.2950554707124357  0.3151798739837957
  0.3127062335232413  0.3122009548597040  0.2720418070939787
  0.8558286835039667  0.2171326493902289  0.2263698453799626
  0.0193415231757350  0.9098091939328152  0.2238272648878993
  0.8046131416796996  0.7310758708238793  0.3365001857116723
  0.6695548041475815  0.4592393077281027  0.4614476162426782
  0.9260059747862960  0.4652775602618662  0.4960474452503310
  0.9621712957786462  0.1259183648044100  0.5950443968095296
  0.3178556501830460  0.7343743865333476  0.3867332460186299
  0.9567367371191500  0.5635702040842747  0.4132922069882521
  0.7403784702157691  0.8248817613020247  0.2213263358751116
  0.8708541833832216  0.6599583611845331  0.2527032732425766
  0.0786181084784580  0.4353571892544659  0.3051771300025625
  0.4512657250971276  0.5373022960625332  0.4530961749776745
  0.8830768093095438  0.4009660931531813  0.3529336886046576
  0.0541418776045339  0.9518739136913019  0.4221884256866004
  0.2316605129409715  0.8400381159065932  0.4596786463736591
  0.6992598932382921  0.0634933392594360  0.2309851795969911
  0.4583311558025880  0.6599717684974368  0.3178975825660225
  0.4430537951416899  0.9367959542386758  0.2235347171189248
  0.8433242092902391  0.1841735715691968  0.3589709107202775
  0.6407158987040416  0.5709373677730378  0.3470335838876378
  0.1760414414749420  0.0484954018723763  0.2089894971668992
  0.6979212377078255  0.3919381810856151  0.2948215979913664
  0.1904852754830309  0.8274067721141085  0.3197084682201149
  0.5778887190143056  0.8213649692815356  0.2807865613355671
  0.5157290884578790  0.3607692621261182  0.4033867592534186
  0.0841464148628270  0.6947405578778195  0.2171386671054524
  0.7294682877400788  0.9438663559419005  0.4374913274613058
  0.9611116582907272  0.0839675747074232  0.2860321740388953
  0.8860508887107948  0.0968999818069510  0.4439075182006318
  0.6611743634778292  0.2743601794265516  0.5070922547324312
  0.3428285078364693  0.5154350183030789  0.2558457746523423
  0.3129308761476663  0.7681805256178420  0.2410154813821073
  0.1523309572955864  0.2610496540598296  0.2094314167559680
  0.1325217973265163  0.6207702845091996  0.3583892586758290
  0.6832777661046904  0.9235722183570987  0.3467659338579958
  0.0211283179399484  0.4514639091390414  0.2177241477781543
  0.7878837974513044  0.4686361197969102  0.2151823446630242
  0.5677585010960712  0.1495732414788457  0.4314162069274110
  0.6443362087866593  0.1276963294904219  0.3197747403485752
  0.3814115191964020  0.1481058860767629  0.2284669559946773
  0.1345019645053335  0.0386682647254656  0.3379350333781606
  0.8858633223315057  0.2474999225359209  0.5176926951383173
  0.4555555744039969  0.6034296680285112  0.1909136189424799
  0.8396096143548739  0.8228011226260942  0.4313504785918086
  0.8723109828240411  0.7711888823818620  0.3862449044743547
  0.4970817190020775  0.3234886403690299  0.3458214475522225
  0.4324854513109412  0.3019096906921221  0.2999351058836229
  0.3316783865252328  0.4372265452847605  0.2618985711226066
  0.2574192090756825  0.3138454972461050  0.2950524788017493
  0.7982112477506477  0.1628607045856399  0.2249723633301703
  0.8233339555593654  0.2741550403306502  0.2434220331135754
  0.9722578214106132  0.9217682482677454  0.1984586852325461
  0.0824541446731800  0.9582284736234089  0.2188224305667947
  0.8389284907973422  0.7069384649736977  0.3084947295056769
  0.7690670948876339  0.7980882938785233  0.3298014506731736
  0.6651113911154440  0.3941674651700521  0.4803274572392440
  0.7408770388723652  0.4870989927814541  0.4677212713975765
  0.9533394493994173  0.4964381143703361  0.4680605632739633
  0.9638749733081119  0.5015404637618264  0.5198770789523445
  0.9383988409708511  0.1751471589218130  0.5718158046629584
 -0.0048119658569180  0.1698847850599258  0.6177312350240834
  0.2817631955085529  0.7801422440033100  0.3646534418853395
  0.3015335875514900  0.7689054240176114  0.4156108740579140
  0.9259783432778563  0.6326715968400595  0.4205939470917706
  0.0230111353931601  0.5817129486059052  0.3967276108452918
  0.7090368992358241  0.8125287013138172  0.1920896287265704
  0.6792779174192477  0.8137295334341499  0.2427948827891167
  0.9476004552421905  0.6620422308233106  0.2446889996266907
  0.8365364687724095  0.7199478216596604  0.2373452391918105
  0.1103521970706760  0.4975168368309679  0.3195601988233907
  0.0114270515857465  0.4227825178729663  0.3218509554513326
  0.4432020702312886  0.6010856268330811  0.4355218948526769
  0.5282710126353434  0.5329341643029396  0.4605742069424196
  0.8163522385917572  0.4129591389084065  0.3361533002667675
  0.8887167436368554  0.4561638722506100  0.3759422860718922
  0.0047633606810712  0.8923302134492652  0.4162109207920639
  0.0785386075322672  0.9784961382316610  0.3931163977173984
  0.2609912184047812  0.8747358867771337  0.4858285624845006
  0.1710434637844805  0.8842124750745678  0.4495850846947295
  0.6757516147800421  0.0799590020094409  0.2617490060564116
  0.7207759451376932  0.9895307157983209  0.2312340643882500
  0.5242107941841526  0.6219091136267578  0.3290164141794110
  0.4209855857574844  0.6841773033206892  0.3450034935600764
  0.4310408150871043  0.0123581635253781  0.2292319522352014
  0.4977670395180816  0.9134419235761502  0.2451253195108400
  0.8652568102365734  0.2590076856352496  0.3587717153456210
  0.8876860815271325  0.1477793671740670  0.3366618854454866
  0.6620005020717648  0.5112724792756375  0.3279373401469134
  0.6987884793190297  0.6232066331081620  0.3445624433359851
  0.1525398747838854  0.1233004423867330  0.2103093331304412
  0.2517286472107130  0.0542814026601612  0.2177282164602930
  0.7127758162969217  0.4154984446539607  0.2640334631757881
  0.6255036672593436  0.3587960366480338  0.2961543589197033
  0.1731508982704363  0.9027537219867894  0.3226917771759951
  0.2247654138188395  0.8183772791304845  0.2903986496568197
  0.6063877146308908  0.8554855453529794  0.3082027935962785
  0.5338697951424450  0.7616056524025607  0.2920461610829536
  0.4673233483979207  0.4122937662363120  0.4177199808258860
  0.5861020352417394  0.3912710172013182  0.4108855061686643
  0.0671985724744350  0.7706460295555163  0.2187731077775101
  0.1579388429329584  0.6908447375997339  0.2282026185363488
  0.6688634000074691  0.9613018199068984  0.4566221525982553
  0.7821799353119313  0.0023287447438332  0.4418843709618345
  0.9385706095302204  0.1378029098769170  0.2638926087916936
  0.9613055909773585  0.0173613558020878  0.2694883223206229
  0.8754293103130611  0.1323108894889319  0.4148328982337190
  0.9515888526737861  0.0538729419155186  0.4400765146158622
  0.6411938384540717  0.2209407015330384  0.4850714170367106
  0.7370326176810169  0.2595317759096832  0.5146299923664985
  0.4160450735420027  0.5574965248400343  0.2132219805822315
  0.3783948816023372  0.5446224413023923  0.2822436856992352
  0.3533720301900288  0.8346395741686375  0.2349238552118353
  0.3579090953458154  0.7279023340778223  0.2615740298863083
  0.2078174061913603  0.2856001407730477  0.2311348620189062
  0.0960362294227732  0.3147233844132433  0.2103653672525243
  0.1205427760990938  0.6869384898103986  0.3423759837019777
  0.2001106194966450  0.6361599714088154  0.3743531526454426
  0.6924237617456221  0.9257720095500193  0.3796192335938642
  0.6658436287767830  0.9967225858968201  0.3381815415395681
  0.0463480901964354  0.5195953815788863  0.2071828005111113
  0.0423557925135281  0.4507508584755199  0.2500296784839710
  0.8608662935686404  0.4400723611172189  0.2117574675136293
  0.8048290552087090  0.5380555966618482  0.2280974499779201
  0.6024634035033777  0.1288022270227676  0.4036759809810820
  0.5353625420516578  0.2182609732089124  0.4242224132346870
  0.7080836211397799  0.1640034344168366  0.3319773239488695
  0.5854322862294923  0.1808285700281602  0.3180456333473059
  0.3525688158644015  0.2076949411632773  0.2484772242368765
  0.3983765456247020  0.1830161248311292  0.2005404977770388
  0.0791500759557470  0.0678096293327598  0.3173998356367799
  0.1925211661834310  0.0897578146210476  0.3388217692731786
  0.8984462793973881  0.2000496043334705  0.4923399891871049
  0.9101288181279493  0.3177241271251175  0.5082992759812177
  0.4203770472919059  0.6710973056446399  0.1957583350585635
 
  0.00000000E+00  0.00000000E+00  0.00000000E+00
  0.00000000E+00  0.00000000E+00  0.00000000E+00
  0.00000000E+00  0.00000000E+00  0.00000000E+00
  0.00000000E+00  0.00000000E+00  0.00000000E+00
  0.00000000E+00  0.00000000E+00  0.00000000E+00
  0.00000000E+00  0.00000000E+00  0.00000000E+00
  0.00000000E+00  0.00000000E+00  0.00000000E+00
  0.00000000E+00  0.00000000E+00  0.00000000E+00
  0.00000000E+00  0.00000000E+00  0.00000000E+00
  0.00000000E+00  0.00000000E+00  0.00000000E+00
  0.00000000E+00  0.00000000E+00  0.00000000E+00
  0.00000000E+00  0.00000000E+00  0.00000000E+00
  0.00000000E+00  0.00000000E+00  0.00000000E+00
  0.00000000E+00  0.00000000E+00  0.00000000E+00
  0.00000000E+00  0.00000000E+00  0.00000000E+00
  0.00000000E+00  0.00000000E+00  0.00000000E+00
  0.00000000E+00  0.00000000E+00  0.00000000E+00
  0.00000000E+00  0.00000000E+00  0.00000000E+00
  0.00000000E+00  0.00000000E+00  0.00000000E+00
  0.00000000E+00  0.00000000E+00  0.00000000E+00
  0.00000000E+00  0.00000000E+00  0.00000000E+00
  0.00000000E+00  0.00000000E+00  0.00000000E+00
  0.00000000E+00  0.00000000E+00  0.00000000E+00
  0.00000000E+00  0.00000000E+00  0.00000000E+00
  0.00000000E+00  0.00000000E+00  0.00000000E+00
  0.00000000E+00  0.00000000E+00  0.00000000E+00
  0.00000000E+00  0.00000000E+00  0.00000000E+00
  0.00000000E+00  0.00000000E+00  0.00000000E+00
  0.00000000E+00  0.00000000E+00  0.00000000E+00
  0.00000000E+00  0.00000000E+00  0.00000000E+00
  0.00000000E+00  0.00000000E+00  0.00000000E+00
  0.00000000E+00  0.00000000E+00  0.00000000E+00
  0.00000000E+00  0.00000000E+00  0.00000000E+00
  0.00000000E+00  0.00000000E+00  0.00000000E+00
  0.00000000E+00  0.00000000E+00  0.00000000E+00
  0.00000000E+00  0.00000000E+00  0.00000000E+00
  0.00000000E+00  0.00000000E+00  0.00000000E+00
  0.00000000E+00  0.00000000E+00  0.00000000E+00
  0.00000000E+00  0.00000000E+00  0.00000000E+00
  0.00000000E+00  0.00000000E+00  0.00000000E+00
  0.00000000E+00  0.00000000E+00  0.00000000E+00
  0.00000000E+00  0.00000000E+00  0.00000000E+00
  0.00000000E+00  0.00000000E+00  0.00000000E+00
  0.00000000E+00  0.00000000E+00  0.00000000E+00
  0.00000000E+00  0.00000000E+00  0.00000000E+00
  0.00000000E+00  0.00000000E+00  0.00000000E+00
  0.00000000E+00  0.00000000E+00  0.00000000E+00
  0.00000000E+00  0.00000000E+00  0.00000000E+00
  0.00000000E+00  0.00000000E+00  0.00000000E+00
  0.00000000E+00  0.00000000E+00  0.00000000E+00
  0.00000000E+00  0.00000000E+00  0.00000000E+00
  0.00000000E+00  0.00000000E+00  0.00000000E+00
  0.00000000E+00  0.00000000E+00  0.00000000E+00
  0.00000000E+00  0.00000000E+00  0.00000000E+00
  0.00000000E+00  0.00000000E+00  0.00000000E+00
  0.00000000E+00  0.00000000E+00  0.00000000E+00
  0.00000000E+00  0.00000000E+00  0.00000000E+00
  0.00000000E+00  0.00000000E+00  0.00000000E+00
  0.00000000E+00  0.00000000E+00  0.00000000E+00
  0.00000000E+00  0.00000000E+00  0.00000000E+00
  0.00000000E+00  0.00000000E+00  0.00000000E+00
  0.00000000E+00  0.00000000E+00  0.00000000E+00
  0.00000000E+00  0.00000000E+00  0.00000000E+00
  0.00000000E+00  0.00000000E+00  0.00000000E+00
  0.00000000E+00  0.00000000E+00  0.00000000E+00
  0.00000000E+00  0.00000000E+00  0.00000000E+00
  0.00000000E+00  0.00000000E+00  0.00000000E+00
  0.00000000E+00  0.00000000E+00  0.00000000E+00
  0.00000000E+00  0.00000000E+00  0.00000000E+00
  0.00000000E+00  0.00000000E+00  0.00000000E+00
  0.00000000E+00  0.00000000E+00  0.00000000E+00
  0.00000000E+00  0.00000000E+00  0.00000000E+00
  0.00000000E+00  0.00000000E+00  0.00000000E+00
  0.00000000E+00  0.00000000E+00  0.00000000E+00
  0.00000000E+00  0.00000000E+00  0.00000000E+00
  0.00000000E+00  0.00000000E+00  0.00000000E+00
  0.00000000E+00  0.00000000E+00  0.00000000E+00
  0.00000000E+00  0.00000000E+00  0.00000000E+00
  0.00000000E+00  0.00000000E+00  0.00000000E+00
  0.00000000E+00  0.00000000E+00  0.00000000E+00
  0.00000000E+00  0.00000000E+00  0.00000000E+00
  0.00000000E+00  0.00000000E+00  0.00000000E+00
  0.00000000E+00  0.00000000E+00  0.00000000E+00
  0.00000000E+00  0.00000000E+00  0.00000000E+00
  0.00000000E+00  0.00000000E+00  0.00000000E+00
  0.00000000E+00  0.00000000E+00  0.00000000E+00
  0.00000000E+00  0.00000000E+00  0.00000000E+00
  0.00000000E+00  0.00000000E+00  0.00000000E+00
  0.00000000E+00  0.00000000E+00  0.00000000E+00
  0.00000000E+00  0.00000000E+00  0.00000000E+00
  0.00000000E+00  0.00000000E+00  0.00000000E+00
  0.00000000E+00  0.00000000E+00  0.00000000E+00
  0.00000000E+00  0.00000000E+00  0.00000000E+00
  0.00000000E+00  0.00000000E+00  0.00000000E+00
  0.00000000E+00  0.00000000E+00  0.00000000E+00
  0.00000000E+00  0.00000000E+00  0.00000000E+00
  0.00000000E+00  0.00000000E+00  0.00000000E+00
  0.00000000E+00  0.00000000E+00  0.00000000E+00
  0.00000000E+00  0.00000000E+00  0.00000000E+00
  0.00000000E+00  0.00000000E+00  0.00000000E+00
  0.00000000E+00  0.00000000E+00  0.00000000E+00
  0.00000000E+00  0.00000000E+00  0.00000000E+00
  0.00000000E+00  0.00000000E+00  0.00000000E+00
  0.00000000E+00  0.00000000E+00  0.00000000E+00
  0.00000000E+00  0.00000000E+00  0.00000000E+00
  0.00000000E+00  0.00000000E+00  0.00000000E+00
  0.00000000E+00  0.00000000E+00  0.00000000E+00
  0.00000000E+00  0.00000000E+00  0.00000000E+00
  0.00000000E+00  0.00000000E+00  0.00000000E+00
  0.00000000E+00  0.00000000E+00  0.00000000E+00
  0.00000000E+00  0.00000000E+00  0.00000000E+00
  0.00000000E+00  0.00000000E+00  0.00000000E+00
  0.00000000E+00  0.00000000E+00  0.00000000E+00
  0.00000000E+00  0.00000000E+00  0.00000000E+00
  0.00000000E+00  0.00000000E+00  0.00000000E+00
  0.00000000E+00  0.00000000E+00  0.00000000E+00
  0.00000000E+00  0.00000000E+00  0.00000000E+00
  0.00000000E+00  0.00000000E+00  0.00000000E+00
  0.00000000E+00  0.00000000E+00  0.00000000E+00
  0.00000000E+00  0.00000000E+00  0.00000000E+00
  0.00000000E+00  0.00000000E+00  0.00000000E+00
  0.00000000E+00  0.00000000E+00  0.00000000E+00
  0.00000000E+00  0.00000000E+00  0.00000000E+00
  0.00000000E+00  0.00000000E+00  0.00000000E+00
  0.00000000E+00  0.00000000E+00  0.00000000E+00
  0.00000000E+00  0.00000000E+00  0.00000000E+00
  0.00000000E+00  0.00000000E+00  0.00000000E+00
  0.00000000E+00  0.00000000E+00  0.00000000E+00
  0.00000000E+00  0.00000000E+00  0.00000000E+00
  0.00000000E+00  0.00000000E+00  0.00000000E+00
  0.00000000E+00  0.00000000E+00  0.00000000E+00
  0.00000000E+00  0.00000000E+00  0.00000000E+00
  0.00000000E+00  0.00000000E+00  0.00000000E+00
  0.00000000E+00  0.00000000E+00  0.00000000E+00
  0.00000000E+00  0.00000000E+00  0.00000000E+00
  0.00000000E+00  0.00000000E+00  0.00000000E+00
  0.00000000E+00  0.00000000E+00  0.00000000E+00
  0.00000000E+00  0.00000000E+00  0.00000000E+00
  0.00000000E+00  0.00000000E+00  0.00000000E+00
  0.00000000E+00  0.00000000E+00  0.00000000E+00
  0.00000000E+00  0.00000000E+00  0.00000000E+00
  0.00000000E+00  0.00000000E+00  0.00000000E+00
  0.00000000E+00  0.00000000E+00  0.00000000E+00
  0.00000000E+00  0.00000000E+00  0.00000000E+00
  0.00000000E+00  0.00000000E+00  0.00000000E+00
  0.00000000E+00  0.00000000E+00  0.00000000E+00
  0.00000000E+00  0.00000000E+00  0.00000000E+00
  0.00000000E+00  0.00000000E+00  0.00000000E+00
  0.00000000E+00  0.00000000E+00  0.00000000E+00
  0.00000000E+00  0.00000000E+00  0.00000000E+00
  0.00000000E+00  0.00000000E+00  0.00000000E+00
  0.00000000E+00  0.00000000E+00  0.00000000E+00
  0.00000000E+00  0.00000000E+00  0.00000000E+00
  0.00000000E+00  0.00000000E+00  0.00000000E+00
  0.00000000E+00  0.00000000E+00  0.00000000E+00
  0.00000000E+00  0.00000000E+00  0.00000000E+00
  0.00000000E+00  0.00000000E+00  0.00000000E+00
  0.00000000E+00  0.00000000E+00  0.00000000E+00
  0.00000000E+00  0.00000000E+00  0.00000000E+00
  0.00000000E+00  0.00000000E+00  0.00000000E+00
  0.00000000E+00  0.00000000E+00  0.00000000E+00
  0.00000000E+00  0.00000000E+00  0.00000000E+00
  0.00000000E+00  0.00000000E+00  0.00000000E+00
  0.00000000E+00  0.00000000E+00  0.00000000E+00
  0.00000000E+00  0.00000000E+00  0.00000000E+00
  0.00000000E+00  0.00000000E+00  0.00000000E+00
  0.00000000E+00  0.00000000E+00  0.00000000E+00
  0.00000000E+00  0.00000000E+00  0.00000000E+00
  0.00000000E+00  0.00000000E+00  0.00000000E+00
  0.00000000E+00  0.00000000E+00  0.00000000E+00
  0.00000000E+00  0.00000000E+00  0.00000000E+00
  0.00000000E+00  0.00000000E+00  0.00000000E+00
  0.00000000E+00  0.00000000E+00  0.00000000E+00
  0.00000000E+00  0.00000000E+00  0.00000000E+00
  0.00000000E+00  0.00000000E+00  0.00000000E+00
  0.00000000E+00  0.00000000E+00  0.00000000E+00
  0.00000000E+00  0.00000000E+00  0.00000000E+00
  0.00000000E+00  0.00000000E+00  0.00000000E+00
  0.00000000E+00  0.00000000E+00  0.00000000E+00
  0.00000000E+00  0.00000000E+00  0.00000000E+00
  0.00000000E+00  0.00000000E+00  0.00000000E+00
  0.00000000E+00  0.00000000E+00  0.00000000E+00
  0.00000000E+00  0.00000000E+00  0.00000000E+00
  0.00000000E+00  0.00000000E+00  0.00000000E+00
  0.00000000E+00  0.00000000E+00  0.00000000E+00
  0.00000000E+00  0.00000000E+00  0.00000000E+00
  0.00000000E+00  0.00000000E+00  0.00000000E+00
  0.00000000E+00  0.00000000E+00  0.00000000E+00
  0.00000000E+00  0.00000000E+00  0.00000000E+00
  0.00000000E+00  0.00000000E+00  0.00000000E+00
  0.00000000E+00  0.00000000E+00  0.00000000E+00
  0.00000000E+00  0.00000000E+00  0.00000000E+00
  0.00000000E+00  0.00000000E+00  0.00000000E+00
  0.00000000E+00  0.00000000E+00  0.00000000E+00
  0.00000000E+00  0.00000000E+00  0.00000000E+00
  0.00000000E+00  0.00000000E+00  0.00000000E+00
