 C  N Mn  O  H                          
   1.00000000000000     
    12.5075085000000001    0.0000000000000000    0.0000000000000000
     0.0000000000000000   12.7423731000000000    0.0000000000000000
     0.0000000000000000    0.0000000000000000   30.0000000000000000
   C    N    Mn   O    H 
    54     4     1    47    91
Direct
  0.0565269462020189  0.1986567511521393  0.0891167062692130
  0.1571429484021097  0.2538766225866517  0.0887266871385090
  0.1564510584598122  0.3651575583470920  0.0873159528353976
  0.0564372218414996  0.4202951308986720  0.0865069054886225
  0.2576230649929740  0.1992399013689156  0.0893639945509681
  0.3577211541366956  0.2552466431416561  0.0898381149882468
  0.3564285759246595  0.3670644579224261  0.0888922916146411
  0.2556486288035548  0.4206280422555160  0.0868529051647463
  0.4578849378655598  0.1996096259282871  0.0911609881210924
  0.5563511914782626  0.2584432203112085  0.0921679124359154
  0.5562535851075482  0.3722216771614990  0.0925733481794072
  0.4543927516443377  0.4272963920796246  0.0908700623403372
  0.6548993836747835  0.1996458584496227  0.0921312150590786
  0.7550511073323960  0.2553352262404128  0.0913015497338979
  0.7561958719582601  0.3671356088088626  0.0910759445174400
  0.6581020199969629  0.4274033350842587  0.0930040364806907
  0.8553619707214843  0.1992590044101637  0.0905500393157646
  0.9558308599694687  0.2538200929173329  0.0893639859851487
  0.9564977447593334  0.3651737606010802  0.0882830710320922
  0.8572174342225000  0.4205945511160333  0.0892240073788308
  0.0564951114490628  0.5311982358992264  0.0846549070123417
  0.1549041590434744  0.5875915375714245  0.0836653848172368
  0.1547930000260238  0.6987543578180166  0.0838322413288527
  0.0564048429650444  0.7551973029207945  0.0851155894274847
  0.2538410725508761  0.5320535008343648  0.0847550497098701
  0.3516142791780861  0.5872616379924886  0.0860934012649254
  0.3515923641438972  0.6991786393920439  0.0852988245181844
  0.2536991932853985  0.7543613948105521  0.0844865444667832
  0.7611845159551202  0.5873852539023219  0.0913539047416208
  0.7613488006167359  0.6991515331200011  0.0913348140165471
  0.8589280550529267  0.5320899070121214  0.0883286756252283
  0.9578771457230962  0.5875421358582321  0.0855585459067773
  0.9579665209593117  0.6990161394659343  0.0859589207502697
  0.8591765495246434  0.7543813127507073  0.0887234875536058
  0.0564484105087519  0.8661415333545238  0.0868426700079024
  0.1563370521919646  0.9213048715516251  0.0873014096522703
  0.0565473531054713  0.0876847930726992  0.0893095824507868
  0.2555093425142428  0.8658806727101349  0.0863801043512476
  0.3563681429260381  0.9196017188308664  0.0880701783569852
  0.3576785416448176  0.0313329301400434  0.0893870244225491
  0.2575706178811665  0.0872661864245567  0.0892272902785854
  0.4543679429800529  0.8592725133199683  0.0893644777305544
  0.5563846480370740  0.9143396809961977  0.0919051765792170
  0.5563879930946056  0.0281795657710222  0.0918208348276843
  0.4578694348018464  0.0869502479607862  0.0908735605899366
  0.6583747916455729  0.8592368106540529  0.0926802300777392
  0.7564505209519635  0.9194253200118446  0.0911985254724558
  0.7551763445001171  0.0312865419270630  0.0913655589466214
  0.6549448928102171  0.0869417513271195  0.0920522079645423
  0.8574708908936849  0.8659136898890974  0.0896030519797450
  0.9566367170104935  0.9212587874012695  0.0887045406334877
  0.8554453351833509  0.0872354860512037  0.0906729977127633
  0.1570619260369504  0.0326109560348583  0.0887660419241344
  0.9559531820307944  0.0326386866458446  0.0896951257161073
  0.4482051861674136  0.5347289106564369  0.0908033028904591
  0.4483905868623955  0.7520921921798670  0.0880994099110225
  0.6640124882528565  0.5349058091167843  0.0947523281804338
  0.6643627793738860  0.7517589546923551  0.0943257604047519
  0.5543465869075195  0.6438034803561250  0.1052904170313043
  0.9584165774592236  0.5869621184024744  0.1930082747114364
  0.8001406906714702  0.5652696343774752  0.3043359669340340
  0.1782399301005496  0.0888790151255534  0.2514320007810200
  0.8535966702460875  0.0814402384185906  0.2352675687188887
  0.7422957698477608  0.5335756320366520  0.2150445027767210
  0.7032933546845449  0.6382010760661221  0.3799791472932111
  0.4145686785850685  0.8359946870201476  0.2144014397663415
  0.4087420088343104  0.3831155923033588  0.2067382761260917
  0.0503103932737927  0.3542640900560176  0.3652718514168538
  0.9553071273357013  0.8507299642600005  0.4581183421875917
  0.5522555377499146  0.1635761109699064  0.3030855640912086
  0.0962371224430499  0.7087843860534847  0.2354690899016915
  0.0314461855526562  0.3884509264921045  0.2291834858820290
  0.8995545714572153  0.1981056395395888  0.3950000002470241
  0.4166403438361633  0.4374718650435382  0.3759622913481204
  0.8212222305487922  0.7971038927759611  0.2262828407315611
  0.6184695478299709  0.3860692588232153  0.3451877417747774
  0.1594414884055927  0.9571336027283891  0.3296636533793240
  0.4195409969367218  0.7710339866451915  0.4176142539477011
  0.6294626103225324  0.3513828195888517  0.1996768452107749
  0.2825072292314974  0.5866536493348422  0.1901168301900449
  0.8961147945778041  0.3763436068618777  0.3011441193955677
  0.6195312499926302  0.8841516263307670  0.2442635906194281
  0.8589281642783596  0.8599305612354867  0.3261878695536005
  0.5247234360573256  0.5743269643262642  0.4340771822150714
  0.6963285873318475  0.2999056770368898  0.4198934035402391
  0.3649329743335959  0.0511179245244898  0.2053556278408894
  0.3193359794203344  0.0520437239230265  0.3906572033367615
  0.5143487939687740  0.5718697175002508  0.3006882671723248
  0.3912316100150400  0.3121517705951995  0.2960374051089874
  0.3278414390281055  0.8126221675057592  0.3010670782414951
  0.6173825661826239  0.0976202834418676  0.2177747029008868
  0.2961573072907008  0.6423546019245482  0.3604535820204479
  0.0311755824116514  0.1946185871646240  0.2002799319830312
  0.3635637990540816  0.2679642330991266  0.4311273374508298
  0.7880105635172784  0.1859997259943767  0.3126195641908424
  0.0864618347213091  0.5734205088162949  0.3819819704742004
  0.4706676813852884  0.9652549879697793  0.3384539052039768
  0.9862916370269591  0.6798248421646352  0.3137519581938422
  0.2111830785460533  0.2125158702672798  0.3273359439774671
  0.9715718320673096  0.9912517418901127  0.3853271800316923
  0.5676273376961301  0.3968469253695169  0.4864665938220680
  0.0424232584203608  0.9148317110099408  0.2115759501946131
  0.6444522806959796  0.8333994196489987  0.3377795826075917
  0.9137585592504891  0.6409635063510192  0.4311635885922708
  0.5073246780795482  0.6772206223381246  0.1680475996767127
  0.5370081230512707  0.5967221609788216  0.2011934888855741
  0.0129478781731678  0.6340757559982142  0.2084192474133908
  0.9722020932574339  0.5957606528544853  0.1612982692103903
  0.7523110788836869  0.5829460994576348  0.3298236910439392
  0.7588857698852967  0.5631737107350184  0.2763486042816383
  0.2479243755934842  0.0807436685185178  0.2354393745197872
  0.1309298550505435  0.1321834633820079  0.2319061669539728
  0.9053031288961961  0.1267888740594524  0.2195208512275390
  0.7837577879810089  0.0913072567964894  0.2208185954634014
  0.8163906314182240  0.5402719160536856  0.2045328072357973
  0.7171849331805301  0.4607326355365962  0.2095984002698861
  0.6725843800319407  0.7027541054579798  0.3670644058416812
  0.6447711325423946  0.6071944642832554  0.3977803322964613
  0.3788381589380806  0.8108040058402350  0.2417343794445315
  0.4401834142399377  0.7742315507553539  0.1968870328604367
  0.3740814797408244  0.4517412240334217  0.2034419461202803
  0.3934846049814910  0.3619511432402693  0.2377260201162276
  0.1084170993021501  0.3128498914246284  0.3519463636667250
 -0.0018030707386296  0.3656423790709226  0.3405735853725685
  0.9606581432863318  0.9029034030225542  0.4337741854232129
  0.9053123236976988  0.8805790130761425  0.4794301182938571
  0.5219820766576700  0.0980795211475747  0.3152805785007738
  0.4914564445254104  0.2139100521943723  0.3006691190750209
  0.0807621236382168  0.7829873585186247  0.2275350078807016
  0.0660349712341417  0.6996457835247979  0.2660444962033572
  0.0133575366875129  0.4526299529094832  0.2126339866995012
  0.9802062425233342  0.3863623613063529  0.2545275471315500
  0.8594057916956173  0.1943626694378145  0.3666286535080044
  0.9555248709896305  0.2515784822208508  0.3896427683032484
  0.4908104765837390  0.4184439718158143  0.3667773628256574
  0.3920400193077261  0.3779538252278407  0.3946755108290819
  0.8432713948163310  0.8131584709564760  0.2569094727680371
  0.8495161427116675  0.7273754354488962  0.2198022128963968
  0.6559963231018935  0.3616246484825736  0.3728991365037214
  0.6076040789778980  0.3213876132355046  0.3284559408436677
  0.2146927929354621  0.9897250817357522  0.3484813178945637
  0.1561428528220631  0.0004750380917546  0.3025217742672874
  0.3696447562189373  0.7304309044514767  0.3985350628491570
  0.4695910457572209  0.8022133717127715  0.3965201253471430
  0.5516342917566119  0.3679162713103563  0.2010689321358613
  0.6346122840509542  0.2751677121480505  0.2003436171239882
  0.2349704540990478  0.6278084380179119  0.2093305950189280
  0.3441640291488032  0.6315349370456939  0.1839623094710674
  0.8538249179078116  0.4423042682291555  0.3050050246410190
  0.8459204213143116  0.3166772288535898  0.3034690877290343
  0.6771071059862315  0.8419917635320819  0.2307362641440171
  0.5500734726342050  0.8592520341242376  0.2323185081218844
  0.8917823743756106  0.9150076929809242  0.3449947758896651
  0.9065324830644242  0.7983938834133690  0.3295342297667112
  0.4753513724567778  0.5345073579265488  0.4145544110151131
  0.4914747646834706  0.6444342126544444  0.4367980265912264
  0.6715784646998550  0.3325551588343953  0.4477799305050130
  0.7707068161858113  0.2769099649861505  0.4231311572449861
  0.4347138715765992  0.0852529277838864  0.2079166578426734
  0.3812066768204790  0.9752130354847041  0.2053349345825156
  0.3830274267004112  0.0187584520796139  0.3759924702984319
  0.3035772464245521  1.0075191933888090  0.4162544515518538
  0.5121556728970114  0.5721359907085014  0.2681016471523717
  0.5634337419350908  0.5154959514708779  0.3089561150870149
  0.3235410525457814  0.2783969388546345  0.3058186305892859
  0.3988036810301575  0.3711654669984301  0.3170006501292247
  0.3212347944963759  0.7457674522678387  0.3177771077320799
  0.2590493343966488  0.8480724832569364  0.3062990340378299
  0.6205656155266721  0.0207779288556029  0.2232537252443401
  0.5970472577662935  0.1250796582060025  0.2474917997716503
  0.3379822260207000  0.5778231735694775  0.3568214343819901
  0.2239027521771094  0.6200104054638709  0.3702287341801546
  0.0447855539989169  0.1893563580895992  0.1684125091665884
  0.0314089620373644  0.2725850451520956  0.2078173545653448
  0.3625268982150384  0.1956855650989040  0.4199400182345592
  0.4205636837305448  0.2715280810146776  0.4532830308423468
  0.7102215253661178  0.1764861469889854  0.3126180427119735
  0.8152645841927033  0.1431996879849279  0.2872978223446179
  0.0293097351768188  0.5949431014328701  0.4034982329907747
  0.0799094025592243  0.4964517673468167  0.3787689559090225
  0.4260238485509197  0.9126228860180173  0.3226188376310621
  0.5397978822120748  0.9284135058381433  0.3436530768954182
  0.0260962258527511  0.6415325435743032  0.3375666511727952
  0.9219255643654292  0.6360919455933820  0.3082146733122408
  0.2362111871108099  0.1644111162728298  0.3504952308008836
  0.1944163634671978  0.1685643144517570  0.3008428975531095
  0.0382762467330726  0.9886709156085119  0.3679545613977403
  0.9535072022852473  0.0663725244687323  0.3903545632398097
  0.5532460598173102  0.4673457801809327  0.4737558460214024
  0.5877966142366550  0.4094284841657552  0.5173042234157132
  0.9683257108496027  0.9329991864843019  0.2186938609422721
  0.0859497609913880  0.9693062992538308  0.2257984549023628
  0.6296138052469605  0.8309409613722004  0.3054320622742317
  0.7226266167714782  0.8499977994399961  0.3381482369485056
  0.8461635327583801  0.6415349594210611  0.4145432787437457
  0.9245533866911895  0.7141885566461529  0.4410532746539397
  0.6163901462541898  0.5984600725931192  0.2012448636667403
 
  0.00000000E+00  0.00000000E+00  0.00000000E+00
  0.00000000E+00  0.00000000E+00  0.00000000E+00
  0.00000000E+00  0.00000000E+00  0.00000000E+00
  0.00000000E+00  0.00000000E+00  0.00000000E+00
  0.00000000E+00  0.00000000E+00  0.00000000E+00
  0.00000000E+00  0.00000000E+00  0.00000000E+00
  0.00000000E+00  0.00000000E+00  0.00000000E+00
  0.00000000E+00  0.00000000E+00  0.00000000E+00
  0.00000000E+00  0.00000000E+00  0.00000000E+00
  0.00000000E+00  0.00000000E+00  0.00000000E+00
  0.00000000E+00  0.00000000E+00  0.00000000E+00
  0.00000000E+00  0.00000000E+00  0.00000000E+00
  0.00000000E+00  0.00000000E+00  0.00000000E+00
  0.00000000E+00  0.00000000E+00  0.00000000E+00
  0.00000000E+00  0.00000000E+00  0.00000000E+00
  0.00000000E+00  0.00000000E+00  0.00000000E+00
  0.00000000E+00  0.00000000E+00  0.00000000E+00
  0.00000000E+00  0.00000000E+00  0.00000000E+00
  0.00000000E+00  0.00000000E+00  0.00000000E+00
  0.00000000E+00  0.00000000E+00  0.00000000E+00
  0.00000000E+00  0.00000000E+00  0.00000000E+00
  0.00000000E+00  0.00000000E+00  0.00000000E+00
  0.00000000E+00  0.00000000E+00  0.00000000E+00
  0.00000000E+00  0.00000000E+00  0.00000000E+00
  0.00000000E+00  0.00000000E+00  0.00000000E+00
  0.00000000E+00  0.00000000E+00  0.00000000E+00
  0.00000000E+00  0.00000000E+00  0.00000000E+00
  0.00000000E+00  0.00000000E+00  0.00000000E+00
  0.00000000E+00  0.00000000E+00  0.00000000E+00
  0.00000000E+00  0.00000000E+00  0.00000000E+00
  0.00000000E+00  0.00000000E+00  0.00000000E+00
  0.00000000E+00  0.00000000E+00  0.00000000E+00
  0.00000000E+00  0.00000000E+00  0.00000000E+00
  0.00000000E+00  0.00000000E+00  0.00000000E+00
  0.00000000E+00  0.00000000E+00  0.00000000E+00
  0.00000000E+00  0.00000000E+00  0.00000000E+00
  0.00000000E+00  0.00000000E+00  0.00000000E+00
  0.00000000E+00  0.00000000E+00  0.00000000E+00
  0.00000000E+00  0.00000000E+00  0.00000000E+00
  0.00000000E+00  0.00000000E+00  0.00000000E+00
  0.00000000E+00  0.00000000E+00  0.00000000E+00
  0.00000000E+00  0.00000000E+00  0.00000000E+00
  0.00000000E+00  0.00000000E+00  0.00000000E+00
  0.00000000E+00  0.00000000E+00  0.00000000E+00
  0.00000000E+00  0.00000000E+00  0.00000000E+00
  0.00000000E+00  0.00000000E+00  0.00000000E+00
  0.00000000E+00  0.00000000E+00  0.00000000E+00
  0.00000000E+00  0.00000000E+00  0.00000000E+00
  0.00000000E+00  0.00000000E+00  0.00000000E+00
  0.00000000E+00  0.00000000E+00  0.00000000E+00
  0.00000000E+00  0.00000000E+00  0.00000000E+00
  0.00000000E+00  0.00000000E+00  0.00000000E+00
  0.00000000E+00  0.00000000E+00  0.00000000E+00
  0.00000000E+00  0.00000000E+00  0.00000000E+00
  0.00000000E+00  0.00000000E+00  0.00000000E+00
  0.00000000E+00  0.00000000E+00  0.00000000E+00
  0.00000000E+00  0.00000000E+00  0.00000000E+00
  0.00000000E+00  0.00000000E+00  0.00000000E+00
  0.00000000E+00  0.00000000E+00  0.00000000E+00
  0.00000000E+00  0.00000000E+00  0.00000000E+00
  0.00000000E+00  0.00000000E+00  0.00000000E+00
  0.00000000E+00  0.00000000E+00  0.00000000E+00
  0.00000000E+00  0.00000000E+00  0.00000000E+00
  0.00000000E+00  0.00000000E+00  0.00000000E+00
  0.00000000E+00  0.00000000E+00  0.00000000E+00
  0.00000000E+00  0.00000000E+00  0.00000000E+00
  0.00000000E+00  0.00000000E+00  0.00000000E+00
  0.00000000E+00  0.00000000E+00  0.00000000E+00
  0.00000000E+00  0.00000000E+00  0.00000000E+00
  0.00000000E+00  0.00000000E+00  0.00000000E+00
  0.00000000E+00  0.00000000E+00  0.00000000E+00
  0.00000000E+00  0.00000000E+00  0.00000000E+00
  0.00000000E+00  0.00000000E+00  0.00000000E+00
  0.00000000E+00  0.00000000E+00  0.00000000E+00
  0.00000000E+00  0.00000000E+00  0.00000000E+00
  0.00000000E+00  0.00000000E+00  0.00000000E+00
  0.00000000E+00  0.00000000E+00  0.00000000E+00
  0.00000000E+00  0.00000000E+00  0.00000000E+00
  0.00000000E+00  0.00000000E+00  0.00000000E+00
  0.00000000E+00  0.00000000E+00  0.00000000E+00
  0.00000000E+00  0.00000000E+00  0.00000000E+00
  0.00000000E+00  0.00000000E+00  0.00000000E+00
  0.00000000E+00  0.00000000E+00  0.00000000E+00
  0.00000000E+00  0.00000000E+00  0.00000000E+00
  0.00000000E+00  0.00000000E+00  0.00000000E+00
  0.00000000E+00  0.00000000E+00  0.00000000E+00
  0.00000000E+00  0.00000000E+00  0.00000000E+00
  0.00000000E+00  0.00000000E+00  0.00000000E+00
  0.00000000E+00  0.00000000E+00  0.00000000E+00
  0.00000000E+00  0.00000000E+00  0.00000000E+00
  0.00000000E+00  0.00000000E+00  0.00000000E+00
  0.00000000E+00  0.00000000E+00  0.00000000E+00
  0.00000000E+00  0.00000000E+00  0.00000000E+00
  0.00000000E+00  0.00000000E+00  0.00000000E+00
  0.00000000E+00  0.00000000E+00  0.00000000E+00
  0.00000000E+00  0.00000000E+00  0.00000000E+00
  0.00000000E+00  0.00000000E+00  0.00000000E+00
  0.00000000E+00  0.00000000E+00  0.00000000E+00
  0.00000000E+00  0.00000000E+00  0.00000000E+00
  0.00000000E+00  0.00000000E+00  0.00000000E+00
  0.00000000E+00  0.00000000E+00  0.00000000E+00
  0.00000000E+00  0.00000000E+00  0.00000000E+00
  0.00000000E+00  0.00000000E+00  0.00000000E+00
  0.00000000E+00  0.00000000E+00  0.00000000E+00
  0.00000000E+00  0.00000000E+00  0.00000000E+00
  0.00000000E+00  0.00000000E+00  0.00000000E+00
  0.00000000E+00  0.00000000E+00  0.00000000E+00
  0.00000000E+00  0.00000000E+00  0.00000000E+00
  0.00000000E+00  0.00000000E+00  0.00000000E+00
  0.00000000E+00  0.00000000E+00  0.00000000E+00
  0.00000000E+00  0.00000000E+00  0.00000000E+00
  0.00000000E+00  0.00000000E+00  0.00000000E+00
  0.00000000E+00  0.00000000E+00  0.00000000E+00
  0.00000000E+00  0.00000000E+00  0.00000000E+00
  0.00000000E+00  0.00000000E+00  0.00000000E+00
  0.00000000E+00  0.00000000E+00  0.00000000E+00
  0.00000000E+00  0.00000000E+00  0.00000000E+00
  0.00000000E+00  0.00000000E+00  0.00000000E+00
  0.00000000E+00  0.00000000E+00  0.00000000E+00
  0.00000000E+00  0.00000000E+00  0.00000000E+00
  0.00000000E+00  0.00000000E+00  0.00000000E+00
  0.00000000E+00  0.00000000E+00  0.00000000E+00
  0.00000000E+00  0.00000000E+00  0.00000000E+00
  0.00000000E+00  0.00000000E+00  0.00000000E+00
  0.00000000E+00  0.00000000E+00  0.00000000E+00
  0.00000000E+00  0.00000000E+00  0.00000000E+00
  0.00000000E+00  0.00000000E+00  0.00000000E+00
  0.00000000E+00  0.00000000E+00  0.00000000E+00
  0.00000000E+00  0.00000000E+00  0.00000000E+00
  0.00000000E+00  0.00000000E+00  0.00000000E+00
  0.00000000E+00  0.00000000E+00  0.00000000E+00
  0.00000000E+00  0.00000000E+00  0.00000000E+00
  0.00000000E+00  0.00000000E+00  0.00000000E+00
  0.00000000E+00  0.00000000E+00  0.00000000E+00
  0.00000000E+00  0.00000000E+00  0.00000000E+00
  0.00000000E+00  0.00000000E+00  0.00000000E+00
  0.00000000E+00  0.00000000E+00  0.00000000E+00
  0.00000000E+00  0.00000000E+00  0.00000000E+00
  0.00000000E+00  0.00000000E+00  0.00000000E+00
  0.00000000E+00  0.00000000E+00  0.00000000E+00
  0.00000000E+00  0.00000000E+00  0.00000000E+00
  0.00000000E+00  0.00000000E+00  0.00000000E+00
  0.00000000E+00  0.00000000E+00  0.00000000E+00
  0.00000000E+00  0.00000000E+00  0.00000000E+00
  0.00000000E+00  0.00000000E+00  0.00000000E+00
  0.00000000E+00  0.00000000E+00  0.00000000E+00
  0.00000000E+00  0.00000000E+00  0.00000000E+00
  0.00000000E+00  0.00000000E+00  0.00000000E+00
  0.00000000E+00  0.00000000E+00  0.00000000E+00
  0.00000000E+00  0.00000000E+00  0.00000000E+00
  0.00000000E+00  0.00000000E+00  0.00000000E+00
  0.00000000E+00  0.00000000E+00  0.00000000E+00
  0.00000000E+00  0.00000000E+00  0.00000000E+00
  0.00000000E+00  0.00000000E+00  0.00000000E+00
  0.00000000E+00  0.00000000E+00  0.00000000E+00
  0.00000000E+00  0.00000000E+00  0.00000000E+00
  0.00000000E+00  0.00000000E+00  0.00000000E+00
  0.00000000E+00  0.00000000E+00  0.00000000E+00
  0.00000000E+00  0.00000000E+00  0.00000000E+00
  0.00000000E+00  0.00000000E+00  0.00000000E+00
  0.00000000E+00  0.00000000E+00  0.00000000E+00
  0.00000000E+00  0.00000000E+00  0.00000000E+00
  0.00000000E+00  0.00000000E+00  0.00000000E+00
  0.00000000E+00  0.00000000E+00  0.00000000E+00
  0.00000000E+00  0.00000000E+00  0.00000000E+00
  0.00000000E+00  0.00000000E+00  0.00000000E+00
  0.00000000E+00  0.00000000E+00  0.00000000E+00
  0.00000000E+00  0.00000000E+00  0.00000000E+00
  0.00000000E+00  0.00000000E+00  0.00000000E+00
  0.00000000E+00  0.00000000E+00  0.00000000E+00
  0.00000000E+00  0.00000000E+00  0.00000000E+00
  0.00000000E+00  0.00000000E+00  0.00000000E+00
  0.00000000E+00  0.00000000E+00  0.00000000E+00
  0.00000000E+00  0.00000000E+00  0.00000000E+00
  0.00000000E+00  0.00000000E+00  0.00000000E+00
  0.00000000E+00  0.00000000E+00  0.00000000E+00
  0.00000000E+00  0.00000000E+00  0.00000000E+00
  0.00000000E+00  0.00000000E+00  0.00000000E+00
  0.00000000E+00  0.00000000E+00  0.00000000E+00
  0.00000000E+00  0.00000000E+00  0.00000000E+00
  0.00000000E+00  0.00000000E+00  0.00000000E+00
  0.00000000E+00  0.00000000E+00  0.00000000E+00
  0.00000000E+00  0.00000000E+00  0.00000000E+00
  0.00000000E+00  0.00000000E+00  0.00000000E+00
  0.00000000E+00  0.00000000E+00  0.00000000E+00
  0.00000000E+00  0.00000000E+00  0.00000000E+00
  0.00000000E+00  0.00000000E+00  0.00000000E+00
  0.00000000E+00  0.00000000E+00  0.00000000E+00
  0.00000000E+00  0.00000000E+00  0.00000000E+00
  0.00000000E+00  0.00000000E+00  0.00000000E+00
  0.00000000E+00  0.00000000E+00  0.00000000E+00
  0.00000000E+00  0.00000000E+00  0.00000000E+00
  0.00000000E+00  0.00000000E+00  0.00000000E+00
  0.00000000E+00  0.00000000E+00  0.00000000E+00
  0.00000000E+00  0.00000000E+00  0.00000000E+00
  0.00000000E+00  0.00000000E+00  0.00000000E+00
  0.00000000E+00  0.00000000E+00  0.00000000E+00
