 C  N Fe  O  H 
 1.0000000000000000
    12.4758271799999996    0.0000000000000000    0.0000000000000000
     0.0000000000000000   12.7377722799999997    0.0000000000000000
     0.0000000000000000    0.0000000000000000   30.0000000000000000
 C   N   Fe  O   H  
  54   4   1  46  92
Cartesian
  5.2386803144530250  2.7127018200542841  2.8479111757829911
  6.4935144980559665  3.4137036607451798  2.8486054242140222
  6.4852419075742338  4.8308367730474648  2.8302017743436432
  5.2379865922801638  5.5343835741378999  2.8248317493455071
  7.7518451730485181  2.7190352216321325  2.8636503075723270
  9.0006339865498095  3.4370063958803025  2.8845827561343662
  8.9864630412753694  4.8656584054047940  2.8671124912347330
  7.7222210761167736  5.5409722696743762  2.8255114861193551
 10.2522218930204030  2.7251969393549853  2.9185135518259231
 11.4781410963401331  3.4805982818732715  2.9454307696653177
 11.4777631317645223  4.9345980471236164  2.9629126156447052
 10.2080501072206928  5.6421376713106266  2.9127633414898768
  0.2293291959110273  2.7268862604546955  2.9374032072825687
  1.4791848317604579  3.4389537834794437  2.9190051807229889
  1.4932998440934506  4.8660792227914822  2.9318117749116510
  0.2718449176016589  5.6411035086626278  2.9852265989690490
  2.7264536636403860  2.7221039579889919  2.8847378332797060
  3.9845967304971781  3.4147575875668936  2.8637539884435359
  3.9916303432060025  4.8307171313116264  2.8589893727175091
  2.7561701512184085  5.5396602139144795  2.8935328399908600
  5.2382044832759194  6.9481341156663659  2.7941382937505277
  6.4637328650826245  7.6673299580085494  2.7690329647086274
  6.4645212133384637  9.0835121033271928  2.7544563101331900
  5.2388542421862079  9.8025544754740128  2.7544449840667982
  7.6976600912081130  6.9606986766901446  2.7948953272147858
  8.9145123529531158  7.6660541700394669  2.8265579965910819
  8.9138717243855350  9.0855322494272404  2.8259084229680580
  7.6981707020126802  9.7911193356548001  2.7795360149872228
  1.5640881436559129  7.6654615679035896  2.9599186111293299
  1.5626285158332085  9.0846023553268278  2.9405812277262782
  2.7796186563611154  6.9595610313403098  2.8848234663366510
  4.0124215038273414  7.6658390515156389  2.8149745818821224
  4.0127428513407111  9.0826329922143429  2.7890208519236310
  2.7771779238858336  9.7900120874192567  2.8380558334815871
  5.2390628999741677 11.2174503202253231  2.7663883734421590
  6.4870391941585073 11.9215637933380147  2.7927417439491178
  5.2403700931093651  1.3022727056160730  2.8288335256380357
  7.7229113336360982 11.2115910636651570  2.8058443118400000
  8.9860918916790098 11.8864524045152589  2.8592761008615541
  9.0002262046256032  0.5759773765376853  2.8777838657517933
  7.7525652420134588  1.2924895904542646  2.8572148820138401
 10.2068006067010746 11.1104186847798871  2.9106969993992879
 11.4770584298017742 11.8177011158633309  2.9497390525182090
 11.4777040519613927  0.5341725424030251  2.9364087566927641
 10.2509968153760180  1.2882044652988480  2.9151997838072878
  0.2701607505629009 11.1105172034414057  2.9554953153561390
  1.4904715943579148 11.8872788601158739  2.8887037697735400
  1.4778684902176040  0.5769405360179850  2.8937934763711857
  0.2282746643993211  1.2893882181055309  2.9293846134426214
  2.7540892480397248 11.2126436473980107  2.8283069119565791
  3.9916219578991363 11.9212365381575633  2.7930989693016328
  2.7258233332891089  1.2953471026416479  2.8656347172963090
  6.4950151138543895  0.5997223012141719  2.8248762485952570
  3.9847226261365432  0.6011592981554864  2.8232041345475491
 10.1387674238590186  7.0185830877046440  2.9065419983928868
 10.1390734397033260  9.7326884094103860  2.9166227333208092
  0.3370417129379599  7.0195148228743500  3.0438162867829623
  0.3365286656453231  9.7324802700458513  3.0153384591253349
 11.4663076810614655  8.3766604115991221  3.1416063174094768
 11.0581861438687721  8.4028957418130279  5.3999206387680960
  9.9315332416702962  2.2655945759646032  7.4780952717208775
  0.9488602391452150 11.3487623333590282 17.4198682608325299
 10.6066789551136154  5.8502665216089760  6.6966003893804338
  5.3544182061701910  8.8516557668588280  7.2836849803500963
  1.3982184033108049 11.8666406680437611  7.0638242734345802
  7.0263921416254140  2.7540374757942012 14.1759475377800133
  8.1178214084930485  8.9268062280454963  6.4412162721541417
 11.5307809217673736  8.6235863008147238  8.7435437327972370
 11.1114554951963562  5.8753015404291560  9.5497152984444185
  7.4153068186986717  6.4000891318069080 10.7271449707526330
  0.8357920695539371  4.0098329308300364 10.2186385123459758
  5.1799484159041036  3.2075294640840335  7.3497884589523448
  8.7236471084599732  8.5741542071557841  9.1893974018328830
  4.5345504554651530  8.5801979804633834 12.5634007171313407
 11.3281462958474854  8.0569909293480890 11.9942589040616792
  0.1117300974327618  1.4745883977587990  9.5253309951227276
 11.3290522267892797 10.7268282011935518 11.1488265356541802
  6.9563843580656677  3.9968502723085488  9.6059715398399579
  8.9380251672855735  4.7907972778199399 14.8533491017492381
 11.0712205486738000 11.3315336859798474  8.1303209869269235
  3.9646880345680171  0.7796549397153364  6.2156950568657763
  3.9615772885963110 11.4420104478879168 12.8487078658639895
  8.1135958577615028 11.2957460157068148  8.1560682149685544
  3.7627056745899194  6.7630994561977786  8.4225246688316968
  2.8713609421554449  0.2719967045660316 15.9033562970698146
  1.9179341624924073  7.5086447928634863 12.7203074989151794
  8.0087930498317981  4.1306373961387601  6.1840206849999086
  2.9869943332593833  4.6385815991309887  6.5226829856243551
  2.4391008274517909 10.9647661399835030  9.4789379317961941
  1.8359509649713899  8.2676564942942896  9.8111777842597956
 10.3996569524756044  1.3698728640735665 11.3662929238651049
  3.5351348904773472  2.7765956775530882  9.9374675413609683
  0.0522926628476878  0.8302709265160840 15.5698671895269118
  3.6992535167882203 10.6346731792678728  5.9526785855353825
 11.5324329955478806  3.4168573300748997 15.3114770265101487
  0.2248112919490939  3.8104357909789641  6.8117212372111373
  6.4771174427841434 12.0574134715552841 11.4159329195429127
 11.6602181322998018  3.8846101046014958 12.4118027331661747
  7.5424684231211954  1.8874848527966737 11.4233505019071480
  5.2738531453447637 11.0396343031012805  9.0763241934823959
  9.6058766311138637  5.9501632432346971 12.4282796766851540
  0.2000560197979936  9.5404415922064665 15.3806069442570816
  2.5158954515007763  0.4771387093220676 11.1907011710752755
  1.3771501657045342  1.8919767005653623 13.2182168648517404
 11.2900873234036307 11.5655939968757053 14.1299901562014405
 10.1404983661995391  8.7208751543997405  5.5364827654527513
 11.0405693182446996  7.5072838437874561  5.8150413353890142
  9.5461178630100623  2.0687877258973058  8.3501073919721804
  9.2587378918158372  2.8327942586443342  7.0391711478117625
  0.4017525348220222 12.0999930615285987 17.1064719115464463
  1.8562235788221124 11.6882379919069237 17.2779532197119430
  9.7356779920864938  5.4333217601507053  6.5362172214410732
 10.6736991482544692  5.9325225336002827  7.6765397057400149
  6.2438051924874554  8.6756132693536419  6.8892273631510674
  4.9603127490190175  8.0052214126201182  7.5996144451076217
  2.0162693641067246 11.2935975738072916  6.5471662737331346
  1.7722499902935902  0.0228485895173218  6.9300411062156213
  7.2037880662315752  2.0032338675471788 14.7682119428730214
  7.6636029053684487  3.4543206360881777 14.4567085238527309
  8.4062776709886169  8.5875666403481770  7.3253829371202333
  8.0888863607316406  9.8931960358239444  6.6206357244402154
 11.4113739528956941  9.5188089452353175  8.3449864912954173
 12.4300426395594226  8.6242382954653269  9.1351588308387743
 11.2541070301942270  6.8215821534059549  9.7574240396072369
 10.4870838502179069  5.5661465354877651 10.2311967843521572
  7.1619563160291886  5.5298188943755227 10.2828907278970547
  6.5890823476898550  6.7886005343801923 11.0658043375223443
  0.5410434651229502  3.1183026537583678  9.8630040821256646
  0.3745956636426958  4.6649730746619289  9.6526432523968175
  5.0226796896093129  2.2969250705360662  7.0099807343711014
  4.3965878929959237  3.7260800059538148  6.9982815483953189
  8.3186901006121055  7.8273187777780979  9.6811752660956394
  9.7016168920062036  8.4842879599530061  9.2687843274081665
  5.1749716137102473  8.4642846112518928 13.2866976346074264
  4.3693809161981374  9.5547659332794979 12.5393614166308645
 11.2347903977884513  8.9951541774887804 11.6809670215441166
 12.2373016986692296  7.9920230473042535 12.3411843382191062
  0.7737666338993798  0.9348264785780178 10.0032724620342570
 11.7335321458472475  1.3064146818173756  9.9929842349214244
 11.1465746946537134 11.0452928075954535 10.2405580563294833
 11.1607336803458015 11.4738175128036932 11.7532958323481953
  7.0447460508401436  3.2264185501910609 10.2226968752686584
  6.3132908569851001  3.7296454481827879  8.9143231709839483
  9.1724681945187942  5.2905186251289553 14.0204735644993939
  8.6893635595546517  5.4697779074172308 15.5033422441401427
 10.2120982215497573 11.6920771479806671  7.8336000817405536
 11.7735532753846392 11.7455707022727278  7.5891641784766675
  4.1192015280050125 12.5444641394121490  6.1817681326220102
  3.8669004920022800  1.0300095625546712  5.2775427110093585
  3.7078384996379659 11.7647206914412674 13.7349074141973784
  3.4752547748524005 12.0397476417989751 12.2186371042478505
  8.1997368183874730 10.5451973714680953  8.7829056860753152
  7.2138693015871400 11.6423387533396419  8.3157057551745712
  4.1255812015503528  6.1069974148746713  9.0433036312881185
  3.0808142639022926  7.2750878823553924  8.9398902741755215
  1.9482575642743287  0.5911299700731240 15.7649112665434039
  3.3786672882970081  1.0785761554057629 16.1025119964395671
  1.9602861619421086  6.5384579858842837 12.7972292675831874
  2.8610911510643260  7.8165401111185577 12.7614242534149351
  7.1030162631714875  3.9370410023892255  6.5098806297762328
  7.9593083969031566  4.0129390278961656  5.2170195906749637
  3.0073137767327180  5.4648687847441382  7.0492562938366534
  2.0697720327889959  4.2844208169694182  6.6101205332560768
  1.9927242111294634 11.2994679698341738  8.6531634571330862
  2.2672319261064198 11.6560713544276719 10.1578842732574621
  1.7978425763602000  8.0229773065955143 10.7615527191803935
  2.0758903252222578  9.2335310531833787  9.7877742322622971
  9.4184545665419002  1.4894994731398774 11.3371690133863421
 10.7319178230464267  2.1840663904939381 11.8036021910882631
  3.9882008403494660  2.8292705359843473  9.0689039204591761
  2.7312911010987535  3.3353887741497465  9.8592947211624491
 11.9564780921084264  0.1896659214010258 15.0654490178070848
 12.0468362435565535  1.6993525833034304 15.6031408767457123
  3.6584092091230591 10.3529789975243354  5.0210108772164999
  4.2694273205284397  9.9574401499906156  6.4041661861591646
 10.6262827445513928  3.7851249375073777 15.3836696128242760
 11.7783891601744095  3.6305115061827071 14.3850790293651549
 12.1699221164498290  3.0542794894810448  7.1298376805619093
 12.0243002162499231  4.4941330584711485  6.6042228771232496
  6.1295399553804266 11.6557216170869982 10.5800668015651080
  5.7380129377866940 11.9394181728085069 12.0486794831104103
 12.2580164155911611  4.0619227767927253 11.6282363268649416
 10.9447893466387782  4.5587588364132783 12.3700334314907714
  7.3383276832455779  2.1940988579691347 12.3379977668460032
  7.1028082112293092  0.9943242423086006 11.3522958326308174
  5.3912388635087973 10.1967664436969070  8.5759028090054912
  4.2950184582695519 11.1108439194077722  9.1912832411200469
  8.7863863544464706  6.1030040535851562 11.8874104858132572
 10.1488794054658769  6.7837409638230897 12.3570630017246188
  0.5986264910749898 10.0560840330280801 16.1297242625638368
  0.9298062429399437  9.0867925001207652 14.9228722487403545
  2.0551024692464468  0.9534868836168476 11.9386380197190292
  3.0175124769755852  1.1937343443289066 10.7154342878723643
  0.6840072151799733  2.5001900909520849 12.9014806775750621
  0.9589533034785721  1.4261425484433179 13.9786412923138457
 11.7614458598012330 10.7595275590923887 14.4847059061729961
 10.3420899328805405 11.3597006994582213 14.1916911905880632
