 C  N Fe  O  H                          
   1.00000000000000     
    12.4758271799999996    0.0000000000000000    0.0000000000000000
     0.0000000000000000   12.7377722799999997    0.0000000000000000
     0.0000000000000000    0.0000000000000000   30.0000000000000000
   C    N    Fe   O    H 
    54     4     1    46    90
Direct
  0.1125648052588580  0.1582521156665362  0.1023414230784466
  0.2130729553452035  0.2133548216382720  0.1015805208088999
  0.2124557503647327  0.3245538699917314  0.1004812346022011
  0.1125551211739931  0.3796048065088984  0.1001994662908087
  0.3138227711923243  0.1588664289087809  0.1024589248965156
  0.4140198897075688  0.2152735387876248  0.1024268911921958
  0.4128880780413661  0.3273893424959265  0.1019359474171764
  0.3116809353552877  0.3802474621886036  0.1008692716004069
  0.5140643874188938  0.1595113475562033  0.1032417138208335
  0.6125711201381631  0.2184409044544195  0.1038623206734234
  0.6125383352943091  0.3328536027295682  0.1044238942013320
  0.5108841232419048  0.3882481139730825  0.1035703685366811
  0.7111534434564712  0.1594124451480608  0.1038442185004976
  0.8112568599111999  0.2151942203061515  0.1032305419314381
  0.8122895406597310  0.3273520898028225  0.1027761872229540
  0.7142287459278363  0.3881481972245502  0.1043751049276691
  0.9113716796235987  0.1588233350948014  0.1030804012486621
  0.0120532909930293  0.2133289697875449  0.1018619997871084
  0.0126578817157700  0.3244980008743846  0.1006439906703851
  0.9134347991307653  0.3802071674574304  0.1014385780923479
  0.1125538583011881  0.4907349562640960  0.1009021263943067
  0.2109575334686596  0.5469641625851174  0.1013671259456223
  0.2109413431812617  0.6581789897250941  0.1024813884087505
  0.1125724233525710  0.7144569328398013  0.1033262851181498
  0.3099074881628062  0.4914959228691784  0.1011050389487303
  0.4078766432939168  0.5467728640752344  0.1020910051783420
  0.4077484844193249  0.6584880496226569  0.1023682464276991
  0.3098408622771169  0.7137800848242657  0.1026441444568962
  0.8172382839539732  0.5468141843251131  0.1034831085290675
  0.8173312880150601  0.6585568345154965  0.1038969805377555
  0.9151844020098333  0.4914537167322841  0.1018903231945847
  0.0141672950334801  0.5469724681209289  0.1017927583311873
  0.0141612927169637  0.6581772980259269  0.1030086272117957
  0.9152734312224682  0.7138281751261176  0.1037235791923074
  0.1125612676399445  0.8257334889243063  0.1042908952944429
  0.2124858102403320  0.8809158879056370  0.1041340275594606
  0.1125629897148965  0.0474087670852895  0.1037536031322283
  0.3116569291864381  0.8251545972101448  0.1034154100184448
  0.4128788051181151  0.8782103243537795  0.1032635467239376
  0.4139740579873750  0.9903552537774221  0.1032581145542823
  0.3138193347406351  0.0468473393532666  0.1033635769725449
  0.5109450400757963  0.8173255956716786  0.1038065310238464
  0.6126152124869303  0.8726521055448568  0.1043838163120115
  0.6126933392627721  0.9871450005478705  0.1035872129690133
  0.5140832137251720  0.0462446157595344  0.1032122115617035
  0.7143037702550320  0.8173337465745154  0.1047942867210265
  0.8123198607902749  0.8782523486374019  0.1043611076292769
  0.8112358438143541  0.9904102987041454  0.1041472802127891
  0.7112137244650684  0.0461662246688773  0.1038687814929650
  0.9134770091180306  0.8252197154017328  0.1044102444932177
  0.0126596887810694  0.8809879889575279  0.1046207034203267
  0.9113558747204573  0.0468689226753635  0.1040363969066340
  0.2130728227892699  0.9922609778294931  0.1039626648899084
  0.0120515492377222  0.9922732429881398  0.1043690066442733
  0.5055308600450141  0.4963025545466202  0.1037879792241307
  0.5054380386648791  0.7093155305188577  0.1035581812128599
  0.7194666077208186  0.4963471363182075  0.1051162322437937
  0.7196548745146853  0.7093199933959168  0.1050124073643412
  0.6118956345641876  0.6031890537444841  0.1160509030152433
  0.6068036403956051  0.6096309220597074  0.1714523102091078
  0.7898365279054721  0.0581276294295508  0.3155975086367507
  0.2601830206454010  0.1400939850684738  0.4533274313510662
  0.7159044002401961  0.4694387300164437  0.2526042137813900
  0.7098626248226835  0.7671616507287791  0.2847664619657593
  0.5748830548551691  0.0576786986923912  0.3419437154268592
  0.5678067349474442  0.3536841271182602  0.4506341181140306
  0.1065947558335369  0.3786580991387699  0.2834866001870044
  0.9565753013593716  0.3131224298150784  0.2006758400469259
  0.8190937753209974  0.7637262151975811  0.3887328295786770
  0.3157452227671120  0.7760192825608110  0.2781699271731398
  0.0732834170956684  0.0599637744680577  0.2705070265906523
  0.1211024526684558  0.7321803920904696  0.2227231197411816
  0.3841586068318324  0.4390665250367008  0.2940401912143368
  0.2937898355224123  0.5745934908429053  0.4316042579786978
  0.4263170148701029  0.4589708021415045  0.5302812429812158
  0.0612874683968539  0.8601528674389559  0.3258253260743033
  0.9494357326589407  0.2207634839321533  0.3070136375261599
  0.6208828311573064  0.2811778463059471  0.2153573610599966
  0.4540071237726961  0.8672853034551529  0.3557208779284061
  0.9264669054729259  0.7190281694734179  0.2738105987475257
  0.9278912854851654  0.5037317121087829  0.2867201532111153
  0.4975486978128341  0.1299474615175831  0.2594398099317461
  0.5947117296605215  0.9753048875803000  0.2094234762543324
  0.6255823162846997  0.5637401601412395  0.4432176215197026
  0.1230183623402433  0.1045505490901145  0.3762141614635174
  0.4714481380000177  0.6623413074487327  0.4896563097980250
  0.2792940217600081  0.1334693662364287  0.2303097893593152
  0.5627618325025847  0.0403547179274926  0.5596155759951220
  0.8212315866109187  0.9799425910439719  0.2308995927264309
  0.6590279865548764  0.3092146792148562  0.3686636333558766
  0.8779952777608518  0.4136876108144251  0.3697890574389829
  0.5806394699257962  0.8442691032672603  0.5107092701745173
  0.9196498225315668  0.9697423627038131  0.3813263463578906
  0.5159214452448396  0.7599863595527828  0.2285985078565280
  0.6024157278043372  0.6943469055503650  0.3678511985502492
  0.6645777266829763  0.1855261555738900  0.4956375756576018
  0.2076067147567848  0.6730124709390747  0.3474803174120646
  0.8538255287624826  0.5836631423583041  0.4339006447927708
  0.4212404230721506  0.4205318977986242  0.2038157151468619
  0.2462298903641302  0.2743511025641112  0.3443326476429300
  0.6168292027311989  0.0085717363690509  0.4388549512023735
  0.5898295514279990  0.4831481638762759  0.3240257979264881
  0.2222036584874104  0.3293459455746726  0.2068146382603616
  0.3910389086086151  0.9606575592387827  0.4332471128431650
  0.3357532029139533  0.3594351480105979  0.4239969349884417
  0.8264239540726899  0.1263621516517701  0.3121733548738339
  0.8026302089107847  0.0223681734841627  0.2864467555332290
  0.2826360448295006  0.2122595876490635  0.4469471927728994
  0.2045321419094243  0.1253541426384674  0.4309585046457111
  0.7008932686450378  0.4008069654792639  0.2391488462834101
  0.7924931004407743  0.4724723990425440  0.2605497128931648
  0.6484556122563715  0.7570370168978550  0.2646570395170073
  0.6868443236333789  0.7345170896723008  0.3126530665642501
  0.5388550358176760  0.9882510936401191  0.3429828467275496
  0.6491807811127438  0.0462458748373848  0.3311736502973083
  0.5966494117168549  0.3288947403633198  0.4215204226609812
  0.5914179862421975  0.4285247733457644  0.4509893648784807
  0.0554649444698848  0.3196357912282274  0.2850111822192593
  0.0568091433985706  0.4395869163667649  0.2840501830695069
  0.0334081788449011  0.3253916608210750  0.1973148357625945
  0.9374032580036086  0.3554041992465413  0.2265495504328101
  0.8415875442912276  0.8355889083319106  0.3955905578426842
  0.7413368623436376  0.7646452217898438  0.3836882727603692
  0.2534793998264622  0.7710694842591067  0.2581458561182120
  0.3789247744124739  0.7585656929327518  0.2598590105557649
  0.1448062356409233  0.0795904135378933  0.2595179724338074
  0.0800444554449910 -0.0106021601302511  0.2832635146514684
  0.1114331754194790  0.7454960740144216  0.1910886718700388
  0.0479635688711849  0.7309135058215135  0.2353339653967272
  0.4547748391076843  0.4542574445172659  0.3077840199216950
  0.3591072012472024  0.3735030111561712  0.3074253067421390
  0.3467897920698367  0.6172737206569384  0.4475911660263413
  0.2736875417738874  0.6145883414823693  0.4048810044316495
  0.3496191418373386  0.4460555099079269  0.5278080923742799
  0.4576080870661643  0.4131706063316090  0.5076429564573174
  0.0134460324377814  0.8875385344411184  0.3495009700904351
  0.1057401241670371  0.8045040627288651  0.3389520321342453
  0.9981508309052453  0.1606615020203702  0.3006808330505433
  0.9623963367642018  0.2419005804761558  0.3378166952996358
  0.6591612955705196  0.2408542758418954  0.1929250936118266
  0.5804926356968998  0.2289588109580951  0.2332534468598227
  0.3985103757378385  0.8507871953743682  0.3337364511204541
  0.4172525390834481  0.8982278800284798  0.3824114974655367
  0.9597544755970308  0.7684513729772123  0.2949917666980365
  0.8492529623303668  0.7386096754549393  0.2730311830194945
  0.9278332020864576  0.5820239339562350  0.2855730816727379
  0.9069320378776462  0.4820002458259348  0.3173299324615118
  0.5113245592246378  0.1110887751920824  0.2910556394912778
  0.4191446228353622  0.1342517980996313  0.2545028195590944
  0.5566630142267511  0.0276205692007639  0.2285413983572869
  0.5777462973408072 -0.0040055155156911  0.1789837089331906
  0.7014696290430642  0.5765517307622655  0.4503288307668853
  0.5789137971272530  0.6040445198318293  0.4644385594737201
  0.1646674202069779  0.1626040894514690  0.3622411894434980
  0.1413466941591574  0.0425089379283216  0.3587587109963576
  0.4565402552073511  0.6135004120808882  0.5141484900971787
  0.4979668541371373  0.7300874350783222  0.5020629185142600
  0.2816510703324686  0.0950021820571481  0.2022940551168146
  0.2576717791349432  0.2074103729229712  0.2214925917721994
  0.4915456928625759  0.0668214900862202  0.5665303265049313
  0.5950049303548572  0.0946209473995669  0.5405623549140183
  0.8613980197421283  0.0354043490669579  0.2160493132727084
  0.7474744388198716  0.9818771168672534  0.2190582526187376
  0.6294696088390914  0.3703155043997869  0.3515485412734198
  0.6334829928284418  0.2455063386994588  0.3541027025393217
  0.8089146236366009  0.3769105905536014  0.3695610732279224
  0.8714598868359488  0.4678855897082665  0.3931360612773979
  0.5972954439153264  0.8799646994175476  0.4826926033864384
  0.5673894695195016  0.9031295751041143  0.5313057099656880
  0.8721380804527715  0.0008118819647821  0.3581615137678202
  0.9666454070885609  0.0269063152404788  0.3908140518654807
  0.5368279016708641  0.8296198608630612  0.2175155475929540
  0.5415467431406193  0.7077894223359085  0.2064810398480868
  0.5998988583972141  0.6535857521666666  0.3959838289681810
  0.5426720593018448  0.7453213106148961  0.3677599372173963
  0.6328010503553356  0.2513896970468480  0.4836635035919331
  0.7397233416410965  0.2010530013958220  0.5011789477751498
  0.1776294189749471  0.6085880570154069  0.3351680204383513
  0.2584146811483347  0.6971863276695510  0.3241578036309420
  0.8498046276679746  0.6534583597401989  0.4184433732918984
  0.9105643574907308  0.5905847958231364  0.4559253112812477
  0.4145347241293819  0.4331722376707288  0.2364827583282872
  0.4882086151575841  0.3811558920646392  0.2009687176986211
  0.2749400018935756  0.3082946110715939  0.3715730307641807
  0.1979698714718615  0.3252776489284173  0.3298565525572232
  0.6119874885667653  0.0333265873814749  0.4079478046631375
  0.6384990792576981  0.0701045506140845  0.4565648442765093
  0.5922840890079304  0.5538420035605958  0.3370858381312334
  0.6372580146824207  0.4844545957159446  0.2967347612377811
  0.1922757369585607  0.3602302795938602  0.2344490879076783
  0.2933440099251506  0.3636958426910570  0.2021895182730155
  0.3476478762881133  0.0240799900967175  0.4392041199772557
  0.4640691591223717  0.9801158533461944  0.4424340271729100
  0.4134532368722559  0.3551349051474786  0.4290815742600255
  0.3190153062292291  0.4356364741010667  0.4265198999487819
 
  0.00000000E+00  0.00000000E+00  0.00000000E+00
  0.00000000E+00  0.00000000E+00  0.00000000E+00
  0.00000000E+00  0.00000000E+00  0.00000000E+00
  0.00000000E+00  0.00000000E+00  0.00000000E+00
  0.00000000E+00  0.00000000E+00  0.00000000E+00
  0.00000000E+00  0.00000000E+00  0.00000000E+00
  0.00000000E+00  0.00000000E+00  0.00000000E+00
  0.00000000E+00  0.00000000E+00  0.00000000E+00
  0.00000000E+00  0.00000000E+00  0.00000000E+00
  0.00000000E+00  0.00000000E+00  0.00000000E+00
  0.00000000E+00  0.00000000E+00  0.00000000E+00
  0.00000000E+00  0.00000000E+00  0.00000000E+00
  0.00000000E+00  0.00000000E+00  0.00000000E+00
  0.00000000E+00  0.00000000E+00  0.00000000E+00
  0.00000000E+00  0.00000000E+00  0.00000000E+00
  0.00000000E+00  0.00000000E+00  0.00000000E+00
  0.00000000E+00  0.00000000E+00  0.00000000E+00
  0.00000000E+00  0.00000000E+00  0.00000000E+00
  0.00000000E+00  0.00000000E+00  0.00000000E+00
  0.00000000E+00  0.00000000E+00  0.00000000E+00
  0.00000000E+00  0.00000000E+00  0.00000000E+00
  0.00000000E+00  0.00000000E+00  0.00000000E+00
  0.00000000E+00  0.00000000E+00  0.00000000E+00
  0.00000000E+00  0.00000000E+00  0.00000000E+00
  0.00000000E+00  0.00000000E+00  0.00000000E+00
  0.00000000E+00  0.00000000E+00  0.00000000E+00
  0.00000000E+00  0.00000000E+00  0.00000000E+00
  0.00000000E+00  0.00000000E+00  0.00000000E+00
  0.00000000E+00  0.00000000E+00  0.00000000E+00
  0.00000000E+00  0.00000000E+00  0.00000000E+00
  0.00000000E+00  0.00000000E+00  0.00000000E+00
  0.00000000E+00  0.00000000E+00  0.00000000E+00
  0.00000000E+00  0.00000000E+00  0.00000000E+00
  0.00000000E+00  0.00000000E+00  0.00000000E+00
  0.00000000E+00  0.00000000E+00  0.00000000E+00
  0.00000000E+00  0.00000000E+00  0.00000000E+00
  0.00000000E+00  0.00000000E+00  0.00000000E+00
  0.00000000E+00  0.00000000E+00  0.00000000E+00
  0.00000000E+00  0.00000000E+00  0.00000000E+00
  0.00000000E+00  0.00000000E+00  0.00000000E+00
  0.00000000E+00  0.00000000E+00  0.00000000E+00
  0.00000000E+00  0.00000000E+00  0.00000000E+00
  0.00000000E+00  0.00000000E+00  0.00000000E+00
  0.00000000E+00  0.00000000E+00  0.00000000E+00
  0.00000000E+00  0.00000000E+00  0.00000000E+00
  0.00000000E+00  0.00000000E+00  0.00000000E+00
  0.00000000E+00  0.00000000E+00  0.00000000E+00
  0.00000000E+00  0.00000000E+00  0.00000000E+00
  0.00000000E+00  0.00000000E+00  0.00000000E+00
  0.00000000E+00  0.00000000E+00  0.00000000E+00
  0.00000000E+00  0.00000000E+00  0.00000000E+00
  0.00000000E+00  0.00000000E+00  0.00000000E+00
  0.00000000E+00  0.00000000E+00  0.00000000E+00
  0.00000000E+00  0.00000000E+00  0.00000000E+00
  0.00000000E+00  0.00000000E+00  0.00000000E+00
  0.00000000E+00  0.00000000E+00  0.00000000E+00
  0.00000000E+00  0.00000000E+00  0.00000000E+00
  0.00000000E+00  0.00000000E+00  0.00000000E+00
  0.00000000E+00  0.00000000E+00  0.00000000E+00
  0.00000000E+00  0.00000000E+00  0.00000000E+00
  0.00000000E+00  0.00000000E+00  0.00000000E+00
  0.00000000E+00  0.00000000E+00  0.00000000E+00
  0.00000000E+00  0.00000000E+00  0.00000000E+00
  0.00000000E+00  0.00000000E+00  0.00000000E+00
  0.00000000E+00  0.00000000E+00  0.00000000E+00
  0.00000000E+00  0.00000000E+00  0.00000000E+00
  0.00000000E+00  0.00000000E+00  0.00000000E+00
  0.00000000E+00  0.00000000E+00  0.00000000E+00
  0.00000000E+00  0.00000000E+00  0.00000000E+00
  0.00000000E+00  0.00000000E+00  0.00000000E+00
  0.00000000E+00  0.00000000E+00  0.00000000E+00
  0.00000000E+00  0.00000000E+00  0.00000000E+00
  0.00000000E+00  0.00000000E+00  0.00000000E+00
  0.00000000E+00  0.00000000E+00  0.00000000E+00
  0.00000000E+00  0.00000000E+00  0.00000000E+00
  0.00000000E+00  0.00000000E+00  0.00000000E+00
  0.00000000E+00  0.00000000E+00  0.00000000E+00
  0.00000000E+00  0.00000000E+00  0.00000000E+00
  0.00000000E+00  0.00000000E+00  0.00000000E+00
  0.00000000E+00  0.00000000E+00  0.00000000E+00
  0.00000000E+00  0.00000000E+00  0.00000000E+00
  0.00000000E+00  0.00000000E+00  0.00000000E+00
  0.00000000E+00  0.00000000E+00  0.00000000E+00
  0.00000000E+00  0.00000000E+00  0.00000000E+00
  0.00000000E+00  0.00000000E+00  0.00000000E+00
  0.00000000E+00  0.00000000E+00  0.00000000E+00
  0.00000000E+00  0.00000000E+00  0.00000000E+00
  0.00000000E+00  0.00000000E+00  0.00000000E+00
  0.00000000E+00  0.00000000E+00  0.00000000E+00
  0.00000000E+00  0.00000000E+00  0.00000000E+00
  0.00000000E+00  0.00000000E+00  0.00000000E+00
  0.00000000E+00  0.00000000E+00  0.00000000E+00
  0.00000000E+00  0.00000000E+00  0.00000000E+00
  0.00000000E+00  0.00000000E+00  0.00000000E+00
  0.00000000E+00  0.00000000E+00  0.00000000E+00
  0.00000000E+00  0.00000000E+00  0.00000000E+00
  0.00000000E+00  0.00000000E+00  0.00000000E+00
  0.00000000E+00  0.00000000E+00  0.00000000E+00
  0.00000000E+00  0.00000000E+00  0.00000000E+00
  0.00000000E+00  0.00000000E+00  0.00000000E+00
  0.00000000E+00  0.00000000E+00  0.00000000E+00
  0.00000000E+00  0.00000000E+00  0.00000000E+00
  0.00000000E+00  0.00000000E+00  0.00000000E+00
  0.00000000E+00  0.00000000E+00  0.00000000E+00
  0.00000000E+00  0.00000000E+00  0.00000000E+00
  0.00000000E+00  0.00000000E+00  0.00000000E+00
  0.00000000E+00  0.00000000E+00  0.00000000E+00
  0.00000000E+00  0.00000000E+00  0.00000000E+00
  0.00000000E+00  0.00000000E+00  0.00000000E+00
  0.00000000E+00  0.00000000E+00  0.00000000E+00
  0.00000000E+00  0.00000000E+00  0.00000000E+00
  0.00000000E+00  0.00000000E+00  0.00000000E+00
  0.00000000E+00  0.00000000E+00  0.00000000E+00
  0.00000000E+00  0.00000000E+00  0.00000000E+00
  0.00000000E+00  0.00000000E+00  0.00000000E+00
  0.00000000E+00  0.00000000E+00  0.00000000E+00
  0.00000000E+00  0.00000000E+00  0.00000000E+00
  0.00000000E+00  0.00000000E+00  0.00000000E+00
  0.00000000E+00  0.00000000E+00  0.00000000E+00
  0.00000000E+00  0.00000000E+00  0.00000000E+00
  0.00000000E+00  0.00000000E+00  0.00000000E+00
  0.00000000E+00  0.00000000E+00  0.00000000E+00
  0.00000000E+00  0.00000000E+00  0.00000000E+00
  0.00000000E+00  0.00000000E+00  0.00000000E+00
  0.00000000E+00  0.00000000E+00  0.00000000E+00
  0.00000000E+00  0.00000000E+00  0.00000000E+00
  0.00000000E+00  0.00000000E+00  0.00000000E+00
  0.00000000E+00  0.00000000E+00  0.00000000E+00
  0.00000000E+00  0.00000000E+00  0.00000000E+00
  0.00000000E+00  0.00000000E+00  0.00000000E+00
  0.00000000E+00  0.00000000E+00  0.00000000E+00
  0.00000000E+00  0.00000000E+00  0.00000000E+00
  0.00000000E+00  0.00000000E+00  0.00000000E+00
  0.00000000E+00  0.00000000E+00  0.00000000E+00
  0.00000000E+00  0.00000000E+00  0.00000000E+00
  0.00000000E+00  0.00000000E+00  0.00000000E+00
  0.00000000E+00  0.00000000E+00  0.00000000E+00
  0.00000000E+00  0.00000000E+00  0.00000000E+00
  0.00000000E+00  0.00000000E+00  0.00000000E+00
  0.00000000E+00  0.00000000E+00  0.00000000E+00
  0.00000000E+00  0.00000000E+00  0.00000000E+00
  0.00000000E+00  0.00000000E+00  0.00000000E+00
  0.00000000E+00  0.00000000E+00  0.00000000E+00
  0.00000000E+00  0.00000000E+00  0.00000000E+00
  0.00000000E+00  0.00000000E+00  0.00000000E+00
  0.00000000E+00  0.00000000E+00  0.00000000E+00
  0.00000000E+00  0.00000000E+00  0.00000000E+00
  0.00000000E+00  0.00000000E+00  0.00000000E+00
  0.00000000E+00  0.00000000E+00  0.00000000E+00
  0.00000000E+00  0.00000000E+00  0.00000000E+00
  0.00000000E+00  0.00000000E+00  0.00000000E+00
  0.00000000E+00  0.00000000E+00  0.00000000E+00
  0.00000000E+00  0.00000000E+00  0.00000000E+00
  0.00000000E+00  0.00000000E+00  0.00000000E+00
  0.00000000E+00  0.00000000E+00  0.00000000E+00
  0.00000000E+00  0.00000000E+00  0.00000000E+00
  0.00000000E+00  0.00000000E+00  0.00000000E+00
  0.00000000E+00  0.00000000E+00  0.00000000E+00
  0.00000000E+00  0.00000000E+00  0.00000000E+00
  0.00000000E+00  0.00000000E+00  0.00000000E+00
  0.00000000E+00  0.00000000E+00  0.00000000E+00
  0.00000000E+00  0.00000000E+00  0.00000000E+00
  0.00000000E+00  0.00000000E+00  0.00000000E+00
  0.00000000E+00  0.00000000E+00  0.00000000E+00
  0.00000000E+00  0.00000000E+00  0.00000000E+00
  0.00000000E+00  0.00000000E+00  0.00000000E+00
  0.00000000E+00  0.00000000E+00  0.00000000E+00
  0.00000000E+00  0.00000000E+00  0.00000000E+00
  0.00000000E+00  0.00000000E+00  0.00000000E+00
  0.00000000E+00  0.00000000E+00  0.00000000E+00
  0.00000000E+00  0.00000000E+00  0.00000000E+00
  0.00000000E+00  0.00000000E+00  0.00000000E+00
  0.00000000E+00  0.00000000E+00  0.00000000E+00
  0.00000000E+00  0.00000000E+00  0.00000000E+00
  0.00000000E+00  0.00000000E+00  0.00000000E+00
  0.00000000E+00  0.00000000E+00  0.00000000E+00
  0.00000000E+00  0.00000000E+00  0.00000000E+00
  0.00000000E+00  0.00000000E+00  0.00000000E+00
  0.00000000E+00  0.00000000E+00  0.00000000E+00
  0.00000000E+00  0.00000000E+00  0.00000000E+00
  0.00000000E+00  0.00000000E+00  0.00000000E+00
  0.00000000E+00  0.00000000E+00  0.00000000E+00
  0.00000000E+00  0.00000000E+00  0.00000000E+00
  0.00000000E+00  0.00000000E+00  0.00000000E+00
  0.00000000E+00  0.00000000E+00  0.00000000E+00
  0.00000000E+00  0.00000000E+00  0.00000000E+00
  0.00000000E+00  0.00000000E+00  0.00000000E+00
  0.00000000E+00  0.00000000E+00  0.00000000E+00
  0.00000000E+00  0.00000000E+00  0.00000000E+00
  0.00000000E+00  0.00000000E+00  0.00000000E+00
  0.00000000E+00  0.00000000E+00  0.00000000E+00
  0.00000000E+00  0.00000000E+00  0.00000000E+00
  0.00000000E+00  0.00000000E+00  0.00000000E+00
  0.00000000E+00  0.00000000E+00  0.00000000E+00
  0.00000000E+00  0.00000000E+00  0.00000000E+00
