 C  N Cu  O  H                          
   1.00000000000000     
    12.4568083000000005    0.0000000000000000    0.0000000000000000
     0.0000000000000000   12.7194003999999996    0.0000000000000000
     0.0000000000000000    0.0000000000000000   30.0000000000000000
   C    N    Cu   O    H 
    54     4     1    46    92
Direct
  0.2619087711767712  0.4034714482163248  0.0920597425457171
  0.3623616164187436  0.4585372902697742  0.0923235966900708
  0.3616712320248789  0.5697909833477095  0.0921749978558575
  0.2618829565761546  0.6249946196157118  0.0915633206722288
  0.4629912052315221  0.4039808404757460  0.0925239830424268
  0.5631984243302974  0.4600410195778715  0.0925125053945157
  0.5618702028176733  0.5717723428842633  0.0925979715408297
  0.4608540998202163  0.6252986092187272  0.0924953222960084
  0.6635381671117839  0.4044670894741675  0.0921842461177697
  0.7619925347928902  0.4635357397195334  0.0917089558407953
  0.7619620975951806  0.5774297140133822  0.0917072437697502
  0.6598800143796316  0.6325200310830722  0.0924772452278615
  0.8604183170328972  0.4044540469734605  0.0912162472896861
  0.9606875512398474  0.4600398514390947  0.0910115879099345
  0.9620162155713992  0.5717847951262736  0.0907534271688643
  0.8640841310174409  0.6325650941783755  0.0909671299765813
  0.0608002640701835  0.4039910697367400  0.0912990802015520
  0.1614042404665466  0.4585558126575804  0.0915720222704461
  0.1620734653171434  0.5697415937986616  0.0912456635461802
  0.0629111922912759  0.6252900131404453  0.0906683599058590
  0.2618807917386401  0.7360131220224548  0.0912831349021521
  0.3600886487862181  0.7923363578085990  0.0918241827143351
  0.3600297134981330  0.9035851057743853  0.0917388498748733
  0.2618842008901171  0.9599212362720854  0.0911866930887329
  0.4588797703507936  0.7367541329680223  0.0924590028976269
  0.5568198922349858  0.7918415749048385  0.0928435879786181
  0.5567390283672573  0.9039816871363815  0.0926793291008303
  0.4588671338189488  0.9591640266686478  0.0922174757710001
  0.9670412576805161  0.7918113248006972  0.0901921326537978
  0.9671647990844933  0.9040388364652414  0.0903677067845898
  0.0649134313723779  0.7367874011101836  0.0903144500295005
  0.1637150180647990  0.7924220943863394  0.0905737273233125
  0.1637483739621409  0.9035847013831420  0.0905208775037578
  0.0649593078013664  0.9591393013702859  0.0903461843055799
  0.2619471742288312  0.0709868224888350  0.0914964660830832
  0.3617330365468520  0.1262503360062048  0.0919671841088036
  0.2619619444155141  0.2926692199960660  0.0920459175449368
  0.4609000798129240  0.0707251447919524  0.0921554700836141
  0.5619415975805629  0.1243833304519187  0.0922012783897891
  0.5632684681314840  0.2361235801786978  0.0922993706414224
  0.4630660687446678  0.2921519928497203  0.0924313312028525
  0.6599664566275706  0.0635842738864116  0.0921778690233751
  0.7620101155077105  0.1187628238486080  0.0918034989024835
  0.7620094151709237  0.2327786846078697  0.0916689257132609
  0.6635760520737292  0.2917548411077068  0.0921057307348964
  0.8641150229332464  0.0634814736436314  0.0912851966658759
  0.9621159916156191  0.1243178197648956  0.0909848784755385
  0.9606762875378942  0.2361132915972973  0.0911276131062802
  0.8603955709475654  0.2917619433987112  0.0912194486968796
  0.0630048726330725  0.0706466112039392  0.0908626879483408
  0.1621239948400460  0.1262166298383506  0.0913561822786860
  0.0607882460365190  0.2921333315211341  0.0913831091924706
  0.3624865517880541  0.2375391896578422  0.0921871597974950
  0.1613880060884254  0.2374776032515275  0.0916622302562347
  0.6535679452020591  0.7396728989319643  0.0929044151679610
  0.6537121243923935  0.9563497704823422  0.0927786918394063
  0.8704250168423250  0.7396059629043934  0.0905551208179892
  0.8704016344731366  0.9562858031200774  0.0913301439447686
  0.7621055763385319  0.8477235245324741  0.0926368517534130
  0.5806141391722516  0.0061560698715337  0.2055085467174656
  0.8524721574259879  0.6159603295884672  0.4662571991984958
  0.5395336966480425  0.7476421391098242  0.2383918625922036
  0.8236118439710262  0.9476541837896773  0.2809913431711139
  0.9200645000745535  0.8029856267263058  0.2059928008906340
  0.9230801571684296  0.0856440530872041  0.2103752495728030
  0.9822787583524727  0.5220063960081250  0.3930109284391946
  0.3383182581161499  0.3462343289454551  0.3142727544738452
  0.3860277278197581  0.0489623436776464  0.2540433041158296
  0.0067672110402696  0.6638254099291546  0.3244842788519334
  0.9362971952399129  0.1730478211787192  0.3854419377962440
  0.4756227666988500  0.5667467706701371  0.4044952039031737
  0.8697350399891851  0.3115445989749981  0.2091802662997538
  0.2385030719492005  0.8912868275983670  0.2838533879132029
  0.4119500813691590  0.0590360664196183  0.4882866218659748
  0.4029579953529367  0.5595339035692229  0.3154218600742895
  0.6255846050713959  0.3017686932899366  0.3544676329627358
  0.7356025907881487  0.3839479193080910  0.4269050233374398
  0.7901314545482407  0.5162293483472858  0.2862948819899285
  0.1069477859276857  0.8528836141479906  0.3616361248684997
  0.7075318703420225  0.7337833750962738  0.3087818911865179
  0.2757441421474098  0.2357475228670993  0.2089681628087349
  0.4798298639012525  0.3217072025416122  0.2388203609867569
  0.9415138192100549  0.3548009162224571  0.3310329909960553
  0.9014052475020438  0.5557517628121929  0.2055578431570423
  0.6343325202545320  0.0530914150831106  0.4728963480555669
  0.8339433731091194  0.8216456651730291  0.5091906327507170
  0.3171996392112083  0.6955020728060402  0.2524935325248475
  0.9379274020923321  0.3563955549359777  0.5128490929532524
  0.1123847537090847  0.5687871221104577  0.2471143799459380
  0.9075657653456825  0.9568778136141048  0.3646037996003199
  0.6693241545993540  0.0883304668134103  0.3160213871320540
  0.1030242245407494  0.9379416157622738  0.2152886788038425
  0.7451182782564998  0.8780345429877020  0.4260946868228923
  0.1543341753497134  0.1470539291661199  0.4029908163805698
  0.9576982897350477  0.9921329834556076  0.5004604389143452
  0.6854714596062748  0.6626816054553565  0.4017680629617901
  0.8433800867610768  0.1859972477162481  0.4692786767685481
  0.5692793267909931  0.5208394457180704  0.2553210601672453
  0.3212796766987071  0.2470440467309251  0.4526841997339217
  0.2133768051473155  0.1625727756891220  0.3154580212043834
  0.0847263845461814  0.5104774570449679  0.4804197124372703
  0.1530132261764069  0.9573197141206125  0.4441380675901772
  0.6696730011916511  0.2034518888311657  0.2343394641521330
  0.4373138985767076  0.3592221940421128  0.3947777192293107
  0.0879272954100548  0.3386656757250045  0.2495452793161075
  0.6193016104737009  0.0721225410077275  0.2130898057553156
  0.5748635822276403  0.0074539059592435  0.1731533101542981
  0.7911505593023501  0.6283478789822519  0.4461587962368219
  0.8571301329152148  0.6814948697526718  0.4835700944776467
  0.5524823521826284  0.8146089833760024  0.2234792072892098
  0.4604121726957445  0.7392891261184185  0.2404004509224388
  0.8581992841304070 -0.0040375718372603  0.2597757499539478
  0.8658209506229639  0.9507328509475678  0.3093007322937480
  0.8840553481253640  0.8230401054687339  0.2336800437010156
  0.9136913976980470  0.7260765765720986  0.2043770656480029
  0.9143406795786012  0.1622711423290870  0.2083226940551688
  0.8970140597696019  0.0591977837063839  0.1818972243466103
  0.9388750358814115  0.5596254269093507  0.4152344824302565
  0.9940928979223360  0.5742220128100902  0.3686081804289143
  0.3720548537839247  0.3439983854892208  0.3446599611212098
  0.3965588148357498  0.3290304951053314  0.2931666117641968
  0.4504605639373593  0.0306967768336968  0.2364899300564809
  0.3486686513369598  0.1025338645496329  0.2363354768426229
  0.0482350761579219  0.6341019603551605  0.2995022338205132
  0.0487025148560156  0.7231430773741683  0.3362760986573597
  0.9263870758740810  0.2273183095845491  0.3621703978511219
  0.9212136277175894  0.1026332040401476  0.3730079961372462
  0.4298178175487535  0.5959337226683729  0.4276666594499751
  0.4650639449496344  0.4882378304999832  0.4060940283292389
  0.7973996550396545  0.2920679672784753  0.2197263846862061
  0.8671231357854312  0.3858738813335555  0.2004699641187437
  0.1842811673230504  0.9087196690624082  0.2603307492463414
  0.2984647247890031  0.9389177208505510  0.2763189359975192
  0.4905092498182555  0.0587781900687743  0.4824964767750445
  0.4059010876289709  0.0616236326422197  0.5205996705530962
  0.4230510768766199  0.5726564033112150  0.3468611090272664
  0.3666572467380697  0.4901821070667263  0.3154029521119198
  0.6755816606781754  0.3298616393230902  0.3772299700470093
  0.6507911965234704  0.2307914784286716  0.3476956331326111
  0.7692995013067534  0.3260557430081541  0.4433440071119519
  0.7923799858983829  0.4353737258664855  0.4222116648938876
  0.7136544195415048  0.5068839473795687  0.2785447330911453
  0.7915248720086184  0.5858239837251363  0.3003211789653708
  0.1367890813129254  0.8744547620912945  0.3907346569397971
  0.1581644083480498  0.8766067755788154  0.3385894611114722
  0.7493526124809021  0.7968146744755487  0.3020975086653750
  0.6456316279576729  0.7374595782479386  0.2884260540495829
  0.2125303773198069  0.2635852390382870  0.2250916144517772
  0.2528091935776004  0.2296805298349504  0.1780440898693778
  0.4156177390981408  0.3093946257978507  0.2205418747589911
  0.5021266499503493  0.3959724652810557  0.2359356553652142
  0.8837511147555211  0.3899618855293138  0.3144993239039977
  0.9570551152925465  0.4054495724245210  0.3552064315444790
  0.9770995733782520  0.5587691221197604  0.2148382190121569
  0.8619983529266096  0.5464723116890666  0.2340311026533490
  0.6910459036631621  0.1063024717052566  0.4741191184695599
  0.6631218589592198 -0.0032087884127390  0.4539329116938164
  0.8831947805525169  0.8845917507377742  0.5088333560359793
  0.7865604910144501  0.8313835499535605  0.5346239000171569
  0.3395253522391014  0.6534315241018871  0.2787200545160811
  0.2861960005065179  0.7613893899389450  0.2647680176642768
  0.8821447643201227  0.4091353848144395  0.5169785831667600
 -0.0002913446644275  0.3977744203456979  0.5016625928089421
  0.1823934309245361  0.6030817024711292  0.2426375516735973
  0.1245058576511659  0.4924900213776756  0.2493474125609791
  0.8573757073784398  0.9244941051628540  0.3862448193213716
  0.9766337200600023  0.9179688191100656  0.3658723206566900
  0.7191670916892505  0.0330330348017652  0.3051508021801531
  0.5998891935174252  0.0540078554931738  0.3190694808330938
  0.0485899151690233  0.8828030973519050  0.2102106174400319
  0.0606178412011763  0.0026612868174675  0.2173474839188127
  0.7747687661249002  0.8583170238272829  0.4556287800288281
  0.7094460733978569  0.8128935316269432  0.4163070106966789
  0.0772033876664102  0.1647662406786706  0.3997161230233893
  0.1809976583260542  0.1471095706164659  0.3716052262621486
  0.9204821015994799  0.0561249518902382  0.4902833004550033
  0.0217933762208499  0.9835014101097620  0.4816773923643347
  0.6950286818016131  0.6769476967207068  0.3697959321824335
  0.6160777519691427  0.6256865958881700  0.4043155345038584
  0.8838673384888278  0.2406759999378757  0.4859496381319748
  0.8755174451768650  0.1845499186252108  0.4390095906864350
  0.5714478477308435  0.5866385601016381  0.2383677929322353
  0.5171660544892756  0.5359515131442474  0.2796701235757050
  0.2574127603611281  0.2201882461080475  0.4369264334610007
  0.3550137767437425  0.1838895319184200  0.4657858308739575
  0.2599636278860130  0.1074542495782637  0.3038855764927513
  0.2569721343728391  0.2278614454867241  0.3136717304403262
  0.0843135173888853  0.5024334965617334  0.4478739784355417
  0.0295611393626276  0.5640702091014462  0.4848383190155640
  0.2185164685168334  0.9527082114231898  0.4618179067316515
  0.1579113564406842  0.0275692779635708  0.4289039888298104
  0.6733367728656842  0.1764346551574365  0.2652082415613256
  0.6028304474230498  0.2458999036993296  0.2341319373822563
  0.4003184219906348  0.3144773765178928  0.4179615925576523
  0.5054377755732437  0.3247606437615729  0.3854386397830401
  0.0178630140782484  0.3284486223361847  0.2350799510702747
  0.0701803445662097  0.3287759725524515  0.2811526195808725
 
  0.00000000E+00  0.00000000E+00  0.00000000E+00
  0.00000000E+00  0.00000000E+00  0.00000000E+00
  0.00000000E+00  0.00000000E+00  0.00000000E+00
  0.00000000E+00  0.00000000E+00  0.00000000E+00
  0.00000000E+00  0.00000000E+00  0.00000000E+00
  0.00000000E+00  0.00000000E+00  0.00000000E+00
  0.00000000E+00  0.00000000E+00  0.00000000E+00
  0.00000000E+00  0.00000000E+00  0.00000000E+00
  0.00000000E+00  0.00000000E+00  0.00000000E+00
  0.00000000E+00  0.00000000E+00  0.00000000E+00
  0.00000000E+00  0.00000000E+00  0.00000000E+00
  0.00000000E+00  0.00000000E+00  0.00000000E+00
  0.00000000E+00  0.00000000E+00  0.00000000E+00
  0.00000000E+00  0.00000000E+00  0.00000000E+00
  0.00000000E+00  0.00000000E+00  0.00000000E+00
  0.00000000E+00  0.00000000E+00  0.00000000E+00
  0.00000000E+00  0.00000000E+00  0.00000000E+00
  0.00000000E+00  0.00000000E+00  0.00000000E+00
  0.00000000E+00  0.00000000E+00  0.00000000E+00
  0.00000000E+00  0.00000000E+00  0.00000000E+00
  0.00000000E+00  0.00000000E+00  0.00000000E+00
  0.00000000E+00  0.00000000E+00  0.00000000E+00
  0.00000000E+00  0.00000000E+00  0.00000000E+00
  0.00000000E+00  0.00000000E+00  0.00000000E+00
  0.00000000E+00  0.00000000E+00  0.00000000E+00
  0.00000000E+00  0.00000000E+00  0.00000000E+00
  0.00000000E+00  0.00000000E+00  0.00000000E+00
  0.00000000E+00  0.00000000E+00  0.00000000E+00
  0.00000000E+00  0.00000000E+00  0.00000000E+00
  0.00000000E+00  0.00000000E+00  0.00000000E+00
  0.00000000E+00  0.00000000E+00  0.00000000E+00
  0.00000000E+00  0.00000000E+00  0.00000000E+00
  0.00000000E+00  0.00000000E+00  0.00000000E+00
  0.00000000E+00  0.00000000E+00  0.00000000E+00
  0.00000000E+00  0.00000000E+00  0.00000000E+00
  0.00000000E+00  0.00000000E+00  0.00000000E+00
  0.00000000E+00  0.00000000E+00  0.00000000E+00
  0.00000000E+00  0.00000000E+00  0.00000000E+00
  0.00000000E+00  0.00000000E+00  0.00000000E+00
  0.00000000E+00  0.00000000E+00  0.00000000E+00
  0.00000000E+00  0.00000000E+00  0.00000000E+00
  0.00000000E+00  0.00000000E+00  0.00000000E+00
  0.00000000E+00  0.00000000E+00  0.00000000E+00
  0.00000000E+00  0.00000000E+00  0.00000000E+00
  0.00000000E+00  0.00000000E+00  0.00000000E+00
  0.00000000E+00  0.00000000E+00  0.00000000E+00
  0.00000000E+00  0.00000000E+00  0.00000000E+00
  0.00000000E+00  0.00000000E+00  0.00000000E+00
  0.00000000E+00  0.00000000E+00  0.00000000E+00
  0.00000000E+00  0.00000000E+00  0.00000000E+00
  0.00000000E+00  0.00000000E+00  0.00000000E+00
  0.00000000E+00  0.00000000E+00  0.00000000E+00
  0.00000000E+00  0.00000000E+00  0.00000000E+00
  0.00000000E+00  0.00000000E+00  0.00000000E+00
  0.00000000E+00  0.00000000E+00  0.00000000E+00
  0.00000000E+00  0.00000000E+00  0.00000000E+00
  0.00000000E+00  0.00000000E+00  0.00000000E+00
  0.00000000E+00  0.00000000E+00  0.00000000E+00
  0.00000000E+00  0.00000000E+00  0.00000000E+00
  0.00000000E+00  0.00000000E+00  0.00000000E+00
  0.00000000E+00  0.00000000E+00  0.00000000E+00
  0.00000000E+00  0.00000000E+00  0.00000000E+00
  0.00000000E+00  0.00000000E+00  0.00000000E+00
  0.00000000E+00  0.00000000E+00  0.00000000E+00
  0.00000000E+00  0.00000000E+00  0.00000000E+00
  0.00000000E+00  0.00000000E+00  0.00000000E+00
  0.00000000E+00  0.00000000E+00  0.00000000E+00
  0.00000000E+00  0.00000000E+00  0.00000000E+00
  0.00000000E+00  0.00000000E+00  0.00000000E+00
  0.00000000E+00  0.00000000E+00  0.00000000E+00
  0.00000000E+00  0.00000000E+00  0.00000000E+00
  0.00000000E+00  0.00000000E+00  0.00000000E+00
  0.00000000E+00  0.00000000E+00  0.00000000E+00
  0.00000000E+00  0.00000000E+00  0.00000000E+00
  0.00000000E+00  0.00000000E+00  0.00000000E+00
  0.00000000E+00  0.00000000E+00  0.00000000E+00
  0.00000000E+00  0.00000000E+00  0.00000000E+00
  0.00000000E+00  0.00000000E+00  0.00000000E+00
  0.00000000E+00  0.00000000E+00  0.00000000E+00
  0.00000000E+00  0.00000000E+00  0.00000000E+00
  0.00000000E+00  0.00000000E+00  0.00000000E+00
  0.00000000E+00  0.00000000E+00  0.00000000E+00
  0.00000000E+00  0.00000000E+00  0.00000000E+00
  0.00000000E+00  0.00000000E+00  0.00000000E+00
  0.00000000E+00  0.00000000E+00  0.00000000E+00
  0.00000000E+00  0.00000000E+00  0.00000000E+00
  0.00000000E+00  0.00000000E+00  0.00000000E+00
  0.00000000E+00  0.00000000E+00  0.00000000E+00
  0.00000000E+00  0.00000000E+00  0.00000000E+00
  0.00000000E+00  0.00000000E+00  0.00000000E+00
  0.00000000E+00  0.00000000E+00  0.00000000E+00
  0.00000000E+00  0.00000000E+00  0.00000000E+00
  0.00000000E+00  0.00000000E+00  0.00000000E+00
  0.00000000E+00  0.00000000E+00  0.00000000E+00
  0.00000000E+00  0.00000000E+00  0.00000000E+00
  0.00000000E+00  0.00000000E+00  0.00000000E+00
  0.00000000E+00  0.00000000E+00  0.00000000E+00
  0.00000000E+00  0.00000000E+00  0.00000000E+00
  0.00000000E+00  0.00000000E+00  0.00000000E+00
  0.00000000E+00  0.00000000E+00  0.00000000E+00
  0.00000000E+00  0.00000000E+00  0.00000000E+00
  0.00000000E+00  0.00000000E+00  0.00000000E+00
  0.00000000E+00  0.00000000E+00  0.00000000E+00
  0.00000000E+00  0.00000000E+00  0.00000000E+00
  0.00000000E+00  0.00000000E+00  0.00000000E+00
  0.00000000E+00  0.00000000E+00  0.00000000E+00
  0.00000000E+00  0.00000000E+00  0.00000000E+00
  0.00000000E+00  0.00000000E+00  0.00000000E+00
  0.00000000E+00  0.00000000E+00  0.00000000E+00
  0.00000000E+00  0.00000000E+00  0.00000000E+00
  0.00000000E+00  0.00000000E+00  0.00000000E+00
  0.00000000E+00  0.00000000E+00  0.00000000E+00
  0.00000000E+00  0.00000000E+00  0.00000000E+00
  0.00000000E+00  0.00000000E+00  0.00000000E+00
  0.00000000E+00  0.00000000E+00  0.00000000E+00
  0.00000000E+00  0.00000000E+00  0.00000000E+00
  0.00000000E+00  0.00000000E+00  0.00000000E+00
  0.00000000E+00  0.00000000E+00  0.00000000E+00
  0.00000000E+00  0.00000000E+00  0.00000000E+00
  0.00000000E+00  0.00000000E+00  0.00000000E+00
  0.00000000E+00  0.00000000E+00  0.00000000E+00
  0.00000000E+00  0.00000000E+00  0.00000000E+00
  0.00000000E+00  0.00000000E+00  0.00000000E+00
  0.00000000E+00  0.00000000E+00  0.00000000E+00
  0.00000000E+00  0.00000000E+00  0.00000000E+00
  0.00000000E+00  0.00000000E+00  0.00000000E+00
  0.00000000E+00  0.00000000E+00  0.00000000E+00
  0.00000000E+00  0.00000000E+00  0.00000000E+00
  0.00000000E+00  0.00000000E+00  0.00000000E+00
  0.00000000E+00  0.00000000E+00  0.00000000E+00
  0.00000000E+00  0.00000000E+00  0.00000000E+00
  0.00000000E+00  0.00000000E+00  0.00000000E+00
  0.00000000E+00  0.00000000E+00  0.00000000E+00
  0.00000000E+00  0.00000000E+00  0.00000000E+00
  0.00000000E+00  0.00000000E+00  0.00000000E+00
  0.00000000E+00  0.00000000E+00  0.00000000E+00
  0.00000000E+00  0.00000000E+00  0.00000000E+00
  0.00000000E+00  0.00000000E+00  0.00000000E+00
  0.00000000E+00  0.00000000E+00  0.00000000E+00
  0.00000000E+00  0.00000000E+00  0.00000000E+00
  0.00000000E+00  0.00000000E+00  0.00000000E+00
  0.00000000E+00  0.00000000E+00  0.00000000E+00
  0.00000000E+00  0.00000000E+00  0.00000000E+00
  0.00000000E+00  0.00000000E+00  0.00000000E+00
  0.00000000E+00  0.00000000E+00  0.00000000E+00
  0.00000000E+00  0.00000000E+00  0.00000000E+00
  0.00000000E+00  0.00000000E+00  0.00000000E+00
  0.00000000E+00  0.00000000E+00  0.00000000E+00
  0.00000000E+00  0.00000000E+00  0.00000000E+00
  0.00000000E+00  0.00000000E+00  0.00000000E+00
  0.00000000E+00  0.00000000E+00  0.00000000E+00
  0.00000000E+00  0.00000000E+00  0.00000000E+00
  0.00000000E+00  0.00000000E+00  0.00000000E+00
  0.00000000E+00  0.00000000E+00  0.00000000E+00
  0.00000000E+00  0.00000000E+00  0.00000000E+00
  0.00000000E+00  0.00000000E+00  0.00000000E+00
  0.00000000E+00  0.00000000E+00  0.00000000E+00
  0.00000000E+00  0.00000000E+00  0.00000000E+00
  0.00000000E+00  0.00000000E+00  0.00000000E+00
  0.00000000E+00  0.00000000E+00  0.00000000E+00
  0.00000000E+00  0.00000000E+00  0.00000000E+00
  0.00000000E+00  0.00000000E+00  0.00000000E+00
  0.00000000E+00  0.00000000E+00  0.00000000E+00
  0.00000000E+00  0.00000000E+00  0.00000000E+00
  0.00000000E+00  0.00000000E+00  0.00000000E+00
  0.00000000E+00  0.00000000E+00  0.00000000E+00
  0.00000000E+00  0.00000000E+00  0.00000000E+00
  0.00000000E+00  0.00000000E+00  0.00000000E+00
  0.00000000E+00  0.00000000E+00  0.00000000E+00
  0.00000000E+00  0.00000000E+00  0.00000000E+00
  0.00000000E+00  0.00000000E+00  0.00000000E+00
  0.00000000E+00  0.00000000E+00  0.00000000E+00
  0.00000000E+00  0.00000000E+00  0.00000000E+00
  0.00000000E+00  0.00000000E+00  0.00000000E+00
  0.00000000E+00  0.00000000E+00  0.00000000E+00
  0.00000000E+00  0.00000000E+00  0.00000000E+00
  0.00000000E+00  0.00000000E+00  0.00000000E+00
  0.00000000E+00  0.00000000E+00  0.00000000E+00
  0.00000000E+00  0.00000000E+00  0.00000000E+00
  0.00000000E+00  0.00000000E+00  0.00000000E+00
  0.00000000E+00  0.00000000E+00  0.00000000E+00
  0.00000000E+00  0.00000000E+00  0.00000000E+00
  0.00000000E+00  0.00000000E+00  0.00000000E+00
  0.00000000E+00  0.00000000E+00  0.00000000E+00
  0.00000000E+00  0.00000000E+00  0.00000000E+00
  0.00000000E+00  0.00000000E+00  0.00000000E+00
  0.00000000E+00  0.00000000E+00  0.00000000E+00
  0.00000000E+00  0.00000000E+00  0.00000000E+00
  0.00000000E+00  0.00000000E+00  0.00000000E+00
  0.00000000E+00  0.00000000E+00  0.00000000E+00
  0.00000000E+00  0.00000000E+00  0.00000000E+00
  0.00000000E+00  0.00000000E+00  0.00000000E+00
  0.00000000E+00  0.00000000E+00  0.00000000E+00
  0.00000000E+00  0.00000000E+00  0.00000000E+00
  0.00000000E+00  0.00000000E+00  0.00000000E+00
  0.00000000E+00  0.00000000E+00  0.00000000E+00
  0.00000000E+00  0.00000000E+00  0.00000000E+00
