 C  N Cr  O  H                          
   1.00000000000000     
    12.4758271999999995    0.0000000000000000    0.0000000000000000
     0.0000000000000000   12.7377722999999996    0.0000000000000000
     0.0000000000000000    0.0000000000000000   30.0000000000000000
   C    N    Cr   O    H 
    54     4     1    46    90
Direct
  0.9881769475993610  0.1074150928985513  0.1038851976905621
  0.0888721317272601  0.1625486533252413  0.1036318654821304
  0.0883328762246602  0.2739833976985219  0.1019744659706772
  0.9881493879718896  0.3290990658869929  0.1002749344606499
  0.1895815660036963  0.1080268102521965  0.1043128146741049
  0.2898250719231560  0.1644886096693511  0.1051302788914913
  0.2889019476781722  0.2767474119624592  0.1044684204158298
  0.1876980532737744  0.3296825444203555  0.1020421380560347
  0.3897350195164901  0.1086503916242233  0.1063617116511496
  0.4881468344715940  0.1676492548355762  0.1074524264938827
  0.4881316593880141  0.2819452433827960  0.1081312987640754
  0.3868018440756211  0.3376399140168925  0.1067043807179071
  0.5866418071395655  0.1087372744871050  0.1068509830564921
  0.6865584820366322  0.1644923074346645  0.1058491865754524
  0.6875441228087283  0.2767261541077700  0.1051513905263271
  0.5895694914362521  0.3375938919108348  0.1073964348021157
  0.7868847687872367  0.1081517065517360  0.1050805471842197
  0.8875679713670754  0.1626298280642518  0.1040299363692264
  0.8881056285499748  0.2740147770249823  0.1022014476808411
  0.7887632787300557  0.3296183530520407  0.1023383394448349
  0.9881805335369985  0.4400080360461635  0.0973161955304481
  0.0869753065351869  0.4963475160369072  0.0971798099927069
  0.0868732002396090  0.6076420981990314  0.0964818984654222
  0.9881263831535251  0.6638332855741079  0.0964129080677890
  0.1861357489280185  0.4410740321409649  0.0999064335702482
  0.2844064932890457  0.4961372076760265  0.1020222313155182
  0.2840695198755361  0.6079423811871838  0.1011930523217354
  0.1860029811894732  0.6630852320780222  0.0982724529532894
  0.6919308555426248  0.4960851695463059  0.1025251830420404
  0.6921215338421804  0.6076968336083014  0.1019652058931822
  0.7900650674129673  0.4409171295780702  0.0997499758818671
  0.8892142426647250  0.4961830500100819  0.0966749641686792
  0.8893076913788637  0.6076586349375392  0.0963717118413769
  0.7901364908212369  0.6629035326107180  0.0990523253415637
  0.9882439878239481  0.7749033335796004  0.0986477339849313
  0.0883312232059848  0.8300823218764372  0.0998157674317715
  0.9882335335378576  0.9965168023628462  0.1032822259634737
  0.1875763454177639  0.7744917589575042  0.0995909091027349
  0.2886166664584764  0.8275356399907023  0.1022070628926148
  0.2897446645898305  0.9396856257552239  0.1037146918311294
  0.1895429114259754  0.9959167203791857  0.1035482479027715
  0.3864352781391715  0.7668725514590102  0.1048488991936465
  0.4880248501573504  0.8223295720004505  0.1066615006593736
  0.4881222114173512  0.9366669647773165  0.1064983145833958
  0.3896226469157111  0.9955059185963759  0.1057240546270059
  0.5895103660223396  0.7667025728359321  0.1060185260635036
  0.6875717581881681  0.8274720359784303  0.1040572652250179
  0.6865822371630383  0.9397497537159231  0.1051451600849931
  0.5866244558078393  0.9955838325758373  0.1064521917107839
  0.7887581457941293  0.7743690109524779  0.1012672701349539
  0.8881085586446744  0.8299929355701274  0.1009339817132713
  0.7868976075101369  0.9960551199237349  0.1046924218727917
  0.0889077668069344  0.9413202451538606  0.1022662255443055
  0.8875824467212498  0.9414783848874143  0.1031442346999909
  0.3819553578203670  0.4459699517800469  0.1067976104724818
  0.3814506123060061  0.6585798236802154  0.1056366603695676
  0.5945003389395301  0.4461218775939270  0.1080403539051570
  0.5946075477165962  0.6580929047114352  0.1068876484360255
  0.4868774398558200  0.5539215981552098  0.1287514355843840
  0.8619597636989840  0.9991551848893369  0.2735247415334034
  0.9551846632585148  0.6984963857221824  0.2742339342814903
  0.5605785841807917  0.8729165196740574  0.2177813908614776
  0.1882000934152682  0.7904313528095760  0.2055304487875404
  0.7012461350025387  0.2822820653717416  0.2312269233885094
  0.6753494849018693  0.1036409970156277  0.4293037102770344
  0.7052202886690202  0.4897061055761120  0.2108452934480206
  0.3436743417954875  0.9435796240107961  0.2227923119284107
  0.4696020925314682  0.1552558323351864  0.3062208148065013
  0.0950455199890741  0.5548662650181235  0.3990895035571799
  0.7815066787969207  0.2113457677004533  0.3593552944632248
  0.7391958922256184  0.6536496042054751  0.2857188539542395
  0.3105980758957403  0.1578713497202992  0.2380121888653757
  0.0852185317227499  0.7834016110963874  0.4994149247959850
  0.8761228508673782  0.7464490919843673  0.4575692544154662
  0.8526167643755578  0.9573771620165906  0.4385740026233969
  0.9680011732497215  0.3664244817472697  0.3189293170743090
  0.2116006226486788  0.6487870276542228  0.2733286330120617
  0.2665331118397511  0.4191772763963875  0.3707894013083610
  0.5688244773967638  0.1085595216423614  0.2212599035332956
  0.3296906012851856  0.3760639987946087  0.2073622313158909
  0.1222667987318937  0.2423449603316453  0.3665106086047653
  0.9208341403774840  0.5393362247516115  0.2022638449804366
  0.1511165214175640  0.9327290455920338  0.3751530184644545
  0.5139018006742848  0.8782761242750134  0.3555474255218750
  0.4297456298565221  0.6897030371266015  0.3921918614910916
  0.6770241967436181  0.8681568241508395  0.2942254483192425
  0.2674790269188240  0.0838168268692809  0.4286777172705123
  0.7754279965320623  0.4818875235330509  0.3395448182513676
  0.4922876301002180  0.4620344777271404  0.4009025070331017
  0.4260458604329599  0.6664206226266419  0.3014246728961353
  0.9545258708082450  0.0447033322013326  0.3560462673577773
  0.2524723292507269  0.6775615717410651  0.4459037628864875
  0.0849878799877792  0.4721452300055864  0.2549519594631431
  0.8641437515363415  0.5279841890020864  0.4228447209131926
  0.9006438930147969  0.2120130395852577  0.2543868638655065
  0.0920228071453317  0.7283413916684390  0.3430983631391609
  0.6950727742675841  0.3418883393271873  0.4270884955030670
  0.6038569902202632  0.3411465134603581  0.3101718287823906
  0.1026073203040821  0.2666992452312415  0.2181226736396020
  0.3071668417367710  0.9046092621877594  0.3141072194645000
  0.4745729285129730  0.0673914504156633  0.3925917702736445
  0.9650942133002598  0.8567915629525368  0.2140011025664265
  1.0011246112095253  0.9819248293598114  0.5092125063324193
  0.4162574205658323  0.4509462015077792  0.3010955115512608
  0.4821421467088757  0.5634944884917263  0.1816990486953237
  0.8719922442565745  0.0727324441154708  0.2633550430526895
  0.8983651307610443  0.9549831327064212  0.2510513025350402
 -0.0027887399022384  0.7161548841918253  0.3016767729414661
  0.9897977084064260  0.6366202908848689  0.2615361495329671
  0.6057166616022129  0.8662803597504229  0.2452121108876601
  0.5821401994215922  0.8171123671122006  0.1975777036319590
  0.1175038215413101  0.8242986415871247  0.2062869554277266
  0.2409053053616974  0.8476490105073998  0.2093897454310893
  0.6913494310609812  0.3520714408416287  0.2167978212742140
  0.6533347894239440  0.2277285289977840  0.2188150785275754
  0.7105845917396516  0.1273378162643626  0.4016225522642431
  0.7221126247634129  0.0459652463065577  0.4394353205900121
  0.6760617952841004  0.5374981603871837  0.2332149776097860
  0.7828155981352649  0.5057838446186051  0.2107417259484744
  0.4194320944838904  0.9253662029160127  0.2179374004292876
  0.3369377526764098  0.0210061498277680  0.2223294947680794
  0.5123622601780258  0.2194145675047819  0.3109232490079185
  0.4671741711955744  0.1215794706293275  0.3359856816553310
  0.0845350821127501  0.6168928491371768  0.3795451801752715
  0.0232984992323441  0.5357492543314503  0.4100114948701803
  0.7397556969254917  0.2191496862611687  0.3321387379503899
  0.7584747392477865  0.2712524196401055  0.3781587315824358
  0.7123470285785709  0.7236885499244269  0.2941235239912380
  0.8159641578400467  0.6673646259122914  0.2795452535241355
  0.2369002782737774  0.1822143355884708  0.2426966793769728
  0.3493933769141531  0.1630582351697215  0.2666447859629449
  0.0894096282971798  0.7536611748339562  0.5292315188517743
  0.0632567624888271  0.8580519665933199  0.5040561761676264
  0.8644225487401332  0.6766557154097661  0.4445763465577635
  0.9477650784949674  0.7444831964680005  0.4712165544630250
  0.8882563478446105  0.9730889428202294  0.4101265830703005
  0.8521663023544989  0.8794276565694931  0.4412628756489774
  0.9380840074573470  0.3112458154095675  0.2992762231037507
  0.9046951996016205  0.4069900469998384  0.3288123056981471
  0.2025482370307146  0.6996881284612598  0.2481280728401778
  0.2885978540982891  0.6526292145816873  0.2808421188277695
  0.2315540127145163  0.3502572553985212  0.3679545910676792
  0.2073527894643250  0.4665541006262031  0.3796559897564004
  0.5370028359037110  0.1082552011505370  0.2513028334328408
  0.5835872986001408  0.0350309018397115  0.2142384703543665
  0.3603350883532475  0.4140597629898619  0.2326311994576186
  0.3391884544314435  0.3020868651512107  0.2153976500565813
  0.0636492629131098  0.2872110292184827  0.3550503721037093
  0.1093195959661250  0.1743028893711930  0.3526713023282642
  0.9359344634266633  0.5329027315068593  0.1706006471733176
  0.9822546101441432  0.5060927413655736  0.2179591961967572
  0.2040761698635677  0.9342375551070400  0.3501597644207651
  0.0893021135617118  0.9759407057194159  0.3664063215036304
  0.5017489643766794  0.9436282156542559  0.3733188771344970
  0.5000695035038518  0.8183373636204102  0.3754999767488203
  0.3632635412720955  0.6943281858669185  0.4107961079502506
  0.4634542001264428  0.6233361823752603  0.4012300891509407
  0.7340287995472968  0.9215761069762167  0.2925742641748004
  0.6288054487673280  0.8827966985030136  0.3198911903240715
  0.2270720839252992  0.0264933956505077  0.4140594877335685
  0.2308701137161308  0.1476049979182592  0.4190143188494895
  0.7146718119000021  0.4343188661937034  0.3337645724356040
  0.7588093533877327  0.5466535421377332  0.3222428180163129
  0.4176180973703537  0.4402987574262887  0.4057412341513092
  0.4983317675956127  0.4559462628836088  0.3684933222967823
  0.4239460784420863  0.6845925841860879  0.3338377013292223
  0.4655864629079055  0.7215713628138682  0.2862236260824627
  0.9259100446710394  0.0186306331474782  0.3271755051047907
  0.9166633590807620  0.1113958246573027  0.3603632033361903
  0.1966571311136036  0.6304013197885719  0.4341184645837151
  0.2118763868050456  0.7302936084965324  0.4627358136038841
  0.0516909911551567  0.4447829122872501  0.2827252346058036
  0.1410546709925367  0.5243434354400375  0.2626590839005126
  0.8270786545274249  0.5145543186316489  0.3941385981113077
  0.8301832696628818  0.4774983831597354  0.4428360146157292
  0.8346070661368403  0.2415574285510048  0.2406408949373044
  0.9621847758367327  0.2281239010853630  0.2348347293755285
  0.1107330942259587  0.7960263654955978  0.3574180915897391
  0.1502771240601929  0.7114763222295082  0.3215979021780037
  0.6261962070952982  0.3767312185651810  0.4211065730233651
  0.6768069701056393  0.2763257988683366  0.4423668891810890
  0.5383882468310276  0.3833635971083560  0.3039314250537110
  0.6363818736563703  0.3250404506329549  0.2806472674298419
  0.1165187566522982  0.3391880645559897  0.2286670383167044
  0.1251385919536177  0.2678796152336205  0.1870378225292335
  0.3792517167752219  0.8961559032754293  0.3269844528090578
  0.3181686773318669  0.9201566717951218  0.2821932176187418
  0.4068353229979664  0.0764625239259730  0.4095536290758135
  0.5373840482811828  0.0833707386966874  0.4117345225690528
  0.9575426700685233  0.7945989457584987  0.2342072383614909
  0.9287020149201323  0.8380724335029562  0.1863978303921434
  0.9478316370886085  0.9840837895891354  0.4846320254219388
  0.0481796293751179  0.0417642849229655  0.5044492827370589
  0.4255729538817383  0.5276157004735964  0.2976193685667010
  0.3559105321347007  0.4417336789388460  0.3222918905029371
 
  0.00000000E+00  0.00000000E+00  0.00000000E+00
  0.00000000E+00  0.00000000E+00  0.00000000E+00
  0.00000000E+00  0.00000000E+00  0.00000000E+00
  0.00000000E+00  0.00000000E+00  0.00000000E+00
  0.00000000E+00  0.00000000E+00  0.00000000E+00
  0.00000000E+00  0.00000000E+00  0.00000000E+00
  0.00000000E+00  0.00000000E+00  0.00000000E+00
  0.00000000E+00  0.00000000E+00  0.00000000E+00
  0.00000000E+00  0.00000000E+00  0.00000000E+00
  0.00000000E+00  0.00000000E+00  0.00000000E+00
  0.00000000E+00  0.00000000E+00  0.00000000E+00
  0.00000000E+00  0.00000000E+00  0.00000000E+00
  0.00000000E+00  0.00000000E+00  0.00000000E+00
  0.00000000E+00  0.00000000E+00  0.00000000E+00
  0.00000000E+00  0.00000000E+00  0.00000000E+00
  0.00000000E+00  0.00000000E+00  0.00000000E+00
  0.00000000E+00  0.00000000E+00  0.00000000E+00
  0.00000000E+00  0.00000000E+00  0.00000000E+00
  0.00000000E+00  0.00000000E+00  0.00000000E+00
  0.00000000E+00  0.00000000E+00  0.00000000E+00
  0.00000000E+00  0.00000000E+00  0.00000000E+00
  0.00000000E+00  0.00000000E+00  0.00000000E+00
  0.00000000E+00  0.00000000E+00  0.00000000E+00
  0.00000000E+00  0.00000000E+00  0.00000000E+00
  0.00000000E+00  0.00000000E+00  0.00000000E+00
  0.00000000E+00  0.00000000E+00  0.00000000E+00
  0.00000000E+00  0.00000000E+00  0.00000000E+00
  0.00000000E+00  0.00000000E+00  0.00000000E+00
  0.00000000E+00  0.00000000E+00  0.00000000E+00
  0.00000000E+00  0.00000000E+00  0.00000000E+00
  0.00000000E+00  0.00000000E+00  0.00000000E+00
  0.00000000E+00  0.00000000E+00  0.00000000E+00
  0.00000000E+00  0.00000000E+00  0.00000000E+00
  0.00000000E+00  0.00000000E+00  0.00000000E+00
  0.00000000E+00  0.00000000E+00  0.00000000E+00
  0.00000000E+00  0.00000000E+00  0.00000000E+00
  0.00000000E+00  0.00000000E+00  0.00000000E+00
  0.00000000E+00  0.00000000E+00  0.00000000E+00
  0.00000000E+00  0.00000000E+00  0.00000000E+00
  0.00000000E+00  0.00000000E+00  0.00000000E+00
  0.00000000E+00  0.00000000E+00  0.00000000E+00
  0.00000000E+00  0.00000000E+00  0.00000000E+00
  0.00000000E+00  0.00000000E+00  0.00000000E+00
  0.00000000E+00  0.00000000E+00  0.00000000E+00
  0.00000000E+00  0.00000000E+00  0.00000000E+00
  0.00000000E+00  0.00000000E+00  0.00000000E+00
  0.00000000E+00  0.00000000E+00  0.00000000E+00
  0.00000000E+00  0.00000000E+00  0.00000000E+00
  0.00000000E+00  0.00000000E+00  0.00000000E+00
  0.00000000E+00  0.00000000E+00  0.00000000E+00
  0.00000000E+00  0.00000000E+00  0.00000000E+00
  0.00000000E+00  0.00000000E+00  0.00000000E+00
  0.00000000E+00  0.00000000E+00  0.00000000E+00
  0.00000000E+00  0.00000000E+00  0.00000000E+00
  0.00000000E+00  0.00000000E+00  0.00000000E+00
  0.00000000E+00  0.00000000E+00  0.00000000E+00
  0.00000000E+00  0.00000000E+00  0.00000000E+00
  0.00000000E+00  0.00000000E+00  0.00000000E+00
  0.00000000E+00  0.00000000E+00  0.00000000E+00
  0.00000000E+00  0.00000000E+00  0.00000000E+00
  0.00000000E+00  0.00000000E+00  0.00000000E+00
  0.00000000E+00  0.00000000E+00  0.00000000E+00
  0.00000000E+00  0.00000000E+00  0.00000000E+00
  0.00000000E+00  0.00000000E+00  0.00000000E+00
  0.00000000E+00  0.00000000E+00  0.00000000E+00
  0.00000000E+00  0.00000000E+00  0.00000000E+00
  0.00000000E+00  0.00000000E+00  0.00000000E+00
  0.00000000E+00  0.00000000E+00  0.00000000E+00
  0.00000000E+00  0.00000000E+00  0.00000000E+00
  0.00000000E+00  0.00000000E+00  0.00000000E+00
  0.00000000E+00  0.00000000E+00  0.00000000E+00
  0.00000000E+00  0.00000000E+00  0.00000000E+00
  0.00000000E+00  0.00000000E+00  0.00000000E+00
  0.00000000E+00  0.00000000E+00  0.00000000E+00
  0.00000000E+00  0.00000000E+00  0.00000000E+00
  0.00000000E+00  0.00000000E+00  0.00000000E+00
  0.00000000E+00  0.00000000E+00  0.00000000E+00
  0.00000000E+00  0.00000000E+00  0.00000000E+00
  0.00000000E+00  0.00000000E+00  0.00000000E+00
  0.00000000E+00  0.00000000E+00  0.00000000E+00
  0.00000000E+00  0.00000000E+00  0.00000000E+00
  0.00000000E+00  0.00000000E+00  0.00000000E+00
  0.00000000E+00  0.00000000E+00  0.00000000E+00
  0.00000000E+00  0.00000000E+00  0.00000000E+00
  0.00000000E+00  0.00000000E+00  0.00000000E+00
  0.00000000E+00  0.00000000E+00  0.00000000E+00
  0.00000000E+00  0.00000000E+00  0.00000000E+00
  0.00000000E+00  0.00000000E+00  0.00000000E+00
  0.00000000E+00  0.00000000E+00  0.00000000E+00
  0.00000000E+00  0.00000000E+00  0.00000000E+00
  0.00000000E+00  0.00000000E+00  0.00000000E+00
  0.00000000E+00  0.00000000E+00  0.00000000E+00
  0.00000000E+00  0.00000000E+00  0.00000000E+00
  0.00000000E+00  0.00000000E+00  0.00000000E+00
  0.00000000E+00  0.00000000E+00  0.00000000E+00
  0.00000000E+00  0.00000000E+00  0.00000000E+00
  0.00000000E+00  0.00000000E+00  0.00000000E+00
  0.00000000E+00  0.00000000E+00  0.00000000E+00
  0.00000000E+00  0.00000000E+00  0.00000000E+00
  0.00000000E+00  0.00000000E+00  0.00000000E+00
  0.00000000E+00  0.00000000E+00  0.00000000E+00
  0.00000000E+00  0.00000000E+00  0.00000000E+00
  0.00000000E+00  0.00000000E+00  0.00000000E+00
  0.00000000E+00  0.00000000E+00  0.00000000E+00
  0.00000000E+00  0.00000000E+00  0.00000000E+00
  0.00000000E+00  0.00000000E+00  0.00000000E+00
  0.00000000E+00  0.00000000E+00  0.00000000E+00
  0.00000000E+00  0.00000000E+00  0.00000000E+00
  0.00000000E+00  0.00000000E+00  0.00000000E+00
  0.00000000E+00  0.00000000E+00  0.00000000E+00
  0.00000000E+00  0.00000000E+00  0.00000000E+00
  0.00000000E+00  0.00000000E+00  0.00000000E+00
  0.00000000E+00  0.00000000E+00  0.00000000E+00
  0.00000000E+00  0.00000000E+00  0.00000000E+00
  0.00000000E+00  0.00000000E+00  0.00000000E+00
  0.00000000E+00  0.00000000E+00  0.00000000E+00
  0.00000000E+00  0.00000000E+00  0.00000000E+00
  0.00000000E+00  0.00000000E+00  0.00000000E+00
  0.00000000E+00  0.00000000E+00  0.00000000E+00
  0.00000000E+00  0.00000000E+00  0.00000000E+00
  0.00000000E+00  0.00000000E+00  0.00000000E+00
  0.00000000E+00  0.00000000E+00  0.00000000E+00
  0.00000000E+00  0.00000000E+00  0.00000000E+00
  0.00000000E+00  0.00000000E+00  0.00000000E+00
  0.00000000E+00  0.00000000E+00  0.00000000E+00
  0.00000000E+00  0.00000000E+00  0.00000000E+00
  0.00000000E+00  0.00000000E+00  0.00000000E+00
  0.00000000E+00  0.00000000E+00  0.00000000E+00
  0.00000000E+00  0.00000000E+00  0.00000000E+00
  0.00000000E+00  0.00000000E+00  0.00000000E+00
  0.00000000E+00  0.00000000E+00  0.00000000E+00
  0.00000000E+00  0.00000000E+00  0.00000000E+00
  0.00000000E+00  0.00000000E+00  0.00000000E+00
  0.00000000E+00  0.00000000E+00  0.00000000E+00
  0.00000000E+00  0.00000000E+00  0.00000000E+00
  0.00000000E+00  0.00000000E+00  0.00000000E+00
  0.00000000E+00  0.00000000E+00  0.00000000E+00
  0.00000000E+00  0.00000000E+00  0.00000000E+00
  0.00000000E+00  0.00000000E+00  0.00000000E+00
  0.00000000E+00  0.00000000E+00  0.00000000E+00
  0.00000000E+00  0.00000000E+00  0.00000000E+00
  0.00000000E+00  0.00000000E+00  0.00000000E+00
  0.00000000E+00  0.00000000E+00  0.00000000E+00
  0.00000000E+00  0.00000000E+00  0.00000000E+00
  0.00000000E+00  0.00000000E+00  0.00000000E+00
  0.00000000E+00  0.00000000E+00  0.00000000E+00
  0.00000000E+00  0.00000000E+00  0.00000000E+00
  0.00000000E+00  0.00000000E+00  0.00000000E+00
  0.00000000E+00  0.00000000E+00  0.00000000E+00
  0.00000000E+00  0.00000000E+00  0.00000000E+00
  0.00000000E+00  0.00000000E+00  0.00000000E+00
  0.00000000E+00  0.00000000E+00  0.00000000E+00
  0.00000000E+00  0.00000000E+00  0.00000000E+00
  0.00000000E+00  0.00000000E+00  0.00000000E+00
  0.00000000E+00  0.00000000E+00  0.00000000E+00
  0.00000000E+00  0.00000000E+00  0.00000000E+00
  0.00000000E+00  0.00000000E+00  0.00000000E+00
  0.00000000E+00  0.00000000E+00  0.00000000E+00
  0.00000000E+00  0.00000000E+00  0.00000000E+00
  0.00000000E+00  0.00000000E+00  0.00000000E+00
  0.00000000E+00  0.00000000E+00  0.00000000E+00
  0.00000000E+00  0.00000000E+00  0.00000000E+00
  0.00000000E+00  0.00000000E+00  0.00000000E+00
  0.00000000E+00  0.00000000E+00  0.00000000E+00
  0.00000000E+00  0.00000000E+00  0.00000000E+00
  0.00000000E+00  0.00000000E+00  0.00000000E+00
  0.00000000E+00  0.00000000E+00  0.00000000E+00
  0.00000000E+00  0.00000000E+00  0.00000000E+00
  0.00000000E+00  0.00000000E+00  0.00000000E+00
  0.00000000E+00  0.00000000E+00  0.00000000E+00
  0.00000000E+00  0.00000000E+00  0.00000000E+00
  0.00000000E+00  0.00000000E+00  0.00000000E+00
  0.00000000E+00  0.00000000E+00  0.00000000E+00
  0.00000000E+00  0.00000000E+00  0.00000000E+00
  0.00000000E+00  0.00000000E+00  0.00000000E+00
  0.00000000E+00  0.00000000E+00  0.00000000E+00
  0.00000000E+00  0.00000000E+00  0.00000000E+00
  0.00000000E+00  0.00000000E+00  0.00000000E+00
  0.00000000E+00  0.00000000E+00  0.00000000E+00
  0.00000000E+00  0.00000000E+00  0.00000000E+00
  0.00000000E+00  0.00000000E+00  0.00000000E+00
  0.00000000E+00  0.00000000E+00  0.00000000E+00
  0.00000000E+00  0.00000000E+00  0.00000000E+00
  0.00000000E+00  0.00000000E+00  0.00000000E+00
  0.00000000E+00  0.00000000E+00  0.00000000E+00
  0.00000000E+00  0.00000000E+00  0.00000000E+00
  0.00000000E+00  0.00000000E+00  0.00000000E+00
  0.00000000E+00  0.00000000E+00  0.00000000E+00
  0.00000000E+00  0.00000000E+00  0.00000000E+00
  0.00000000E+00  0.00000000E+00  0.00000000E+00
  0.00000000E+00  0.00000000E+00  0.00000000E+00
  0.00000000E+00  0.00000000E+00  0.00000000E+00
  0.00000000E+00  0.00000000E+00  0.00000000E+00
  0.00000000E+00  0.00000000E+00  0.00000000E+00
  0.00000000E+00  0.00000000E+00  0.00000000E+00
