 C  N Cu  O  H                          
   1.00000000000000     
    12.4568083000000005    0.0000000000000000    0.0000000000000000
     0.0000000000000000   12.7194003999999996    0.0000000000000000
     0.0000000000000000    0.0000000000000000   30.0000000000000000
   C    N    Cu   O    H 
    54     4     1    46    92
Direct
  0.2619087699999980  0.4034714499999978  0.0920597400000034
  0.3623616200000015  0.4585372900000024  0.0923236000000003
  0.3616712299999989  0.5697909800000005  0.0921749999999975
  0.2618829600000012  0.6249946200000025  0.0915633199999988
  0.4629912099999984  0.4039808400000027  0.0925239800000028
  0.5631984199999991  0.4600410199999985  0.0925125099999988
  0.5618702000000013  0.5717723400000025  0.0925979699999999
  0.4608540999999988  0.6252986100000015  0.0924953199999976
  0.6635381700000025  0.4044670899999971  0.0921842500000025
  0.7619925300000006  0.4635357399999975  0.0917089599999983
  0.7619620999999981  0.5774297099999970  0.0917072399999981
  0.6598800100000020  0.6325200300000020  0.0924772500000017
  0.8604183200000008  0.4044540499999982  0.0912162500000022
  0.9606875500000029  0.4600398500000011  0.0910115900000008
  0.9620162200000024  0.5717848000000032  0.0907534299999995
  0.8640841300000019  0.6325650899999999  0.0909671300000028
  0.0608002600000006  0.4039910700000036  0.0912990799999989
  0.1614042400000031  0.4585558100000000  0.0915720200000010
  0.1620734700000028  0.5697415899999996  0.0912456599999985
  0.0629111900000012  0.6252900100000005  0.0906683600000022
  0.2618807899999993  0.7360131200000026  0.0912831300000008
  0.3600886500000016  0.7923363600000002  0.0918241800000033
  0.3600297099999992  0.9035851100000016  0.0917388499999987
  0.2618841999999972  0.9599212399999999  0.0911866900000007
  0.4588797700000029  0.7367541300000013  0.0924589999999981
  0.5568198899999999  0.7918415700000025  0.0928435900000011
  0.5567390300000028  0.9039816900000019  0.0926793300000028
  0.4588671300000016  0.9591640299999966  0.0922174800000022
  0.9670412600000020  0.7918113200000008  0.0901921299999984
  0.9671647999999990  0.9040388399999983  0.0903677100000024
  0.0649134299999972  0.7367873999999972  0.0903144500000010
  0.1637150199999979  0.7924220900000023  0.0905737300000027
  0.1637483700000004  0.9035847000000032  0.0905208799999997
  0.0649593099999990  0.9591392999999968  0.0903461799999974
  0.2619471699999991  0.0709868200000017  0.0914964700000027
  0.3617330399999972  0.1262503399999986  0.0919671799999975
  0.2619619399999991  0.2926692200000005  0.0920459199999968
  0.4609000800000018  0.0707251400000004  0.0921554700000016
  0.5619415999999973  0.1243833300000006  0.0922012799999976
  0.5632684699999970  0.2361235799999974  0.0922993699999992
  0.4630660699999964  0.2921519900000007  0.0924313299999966
  0.6599664599999997  0.0635842699999998  0.0921778700000004
  0.7620101199999993  0.1187628200000006  0.0918034999999975
  0.7620094199999983  0.2327786800000027  0.0916689299999973
  0.6635760500000032  0.2917548400000030  0.0921057300000001
  0.8641150199999998  0.0634814699999993  0.0912852000000015
  0.9621159900000009  0.1243178200000017  0.0909848800000006
  0.9606762900000021  0.2361132899999987  0.0911276100000009
  0.8603955700000014  0.2917619400000007  0.0912194499999970
  0.0630048700000003  0.0706466099999972  0.0908626900000016
  0.1621239899999978  0.1262166300000018  0.0913561799999982
  0.0607882500000017  0.2921333299999986  0.0913831100000024
  0.3624865499999999  0.2375391899999997  0.0921871600000017
  0.1613880100000031  0.2374775999999983  0.0916622299999972
  0.6535679500000029  0.7396729000000022  0.0929044200000035
  0.6537121200000016  0.9563497700000028  0.0927786900000029
  0.8704250199999990  0.7396059599999987  0.0905551199999977
  0.8704016300000035  0.9562858000000034  0.0913301399999966
  0.7621055799999965  0.8477235200000024  0.0926368499999981
  0.5806141400000016  0.0061560700000030  0.2055085499999976
  0.8524721599999978  0.6159603300000001  0.4662572000000011
  0.5395336999999998  0.7476421400000035  0.2383918600000001
  0.8236118399999981  0.9476541800000007  0.2809913399999999
  0.9200645000000023  0.8029856300000020  0.2059927999999971
  0.9230801599999978  0.0856440499999991  0.2103752499999985
  0.9822787599999998  0.5220064000000022  0.3930109300000026
  0.3383182600000012  0.3462343300000015  0.3142727500000007
  0.3860277300000021  0.0489623400000028  0.2540432999999993
  0.0067672099999996  0.6638254100000012  0.3244842800000001
  0.9362971999999985  0.1730478200000007  0.3854419399999998
  0.4756227700000011  0.5667467700000017  0.4044951999999995
  0.8697350400000019  0.3115445999999977  0.2091802699999974
  0.2385030700000002  0.8912868299999985  0.2838533899999973
  0.4119500799999969  0.0590360699999977  0.4882866199999967
  0.4029579999999982  0.5595338999999981  0.3154218600000007
  0.6255846099999971  0.3017686900000029  0.3544676300000020
  0.7356025899999992  0.3839479199999971  0.4269050199999995
  0.7901314499999970  0.5162293500000033  0.2862948799999998
  0.1069477899999995  0.8528836099999992  0.3616361200000000
  0.7075318699999968  0.7337833799999984  0.3087818899999988
  0.2757441400000005  0.2357475199999968  0.2089681599999977
  0.4798298600000024  0.3217071999999987  0.2388203599999983
  0.9415138199999973  0.3548009200000024  0.3310329899999971
  0.9014052500000034  0.5557517599999997  0.2055578399999973
  0.6343325200000010  0.0530914200000012  0.4728963499999992
  0.8339433700000001  0.8216456700000023  0.5091906299999991
  0.3171996399999983  0.6955020700000034  0.2524935300000024
  0.9379273999999995  0.3563955500000020  0.5128490900000031
  0.1123847499999968  0.5687871200000032  0.2471143799999993
  0.9075657699999979  0.9568778100000017  0.3646037999999976
  0.6693241500000013  0.0883304700000025  0.3160213900000031
  0.1030242200000018  0.9379416200000037  0.2152886800000005
  0.7451182799999998  0.8780345400000016  0.4260946899999993
  0.1543341799999993  0.1470539299999984  0.4029908199999994
  0.9576982900000033  0.9921329800000009  0.5004604399999977
  0.6854714600000023  0.6626816099999999  0.4017680600000020
  0.8433800899999966  0.1859972499999998  0.4692786800000022
  0.5692793300000005  0.5208394499999969  0.2553210600000000
  0.3212796800000035  0.2470440499999995  0.4526842000000002
  0.2133768099999998  0.1625727799999979  0.3154580200000012
  0.0847263799999993  0.5104774599999971  0.4804197099999996
  0.1530132299999991  0.9573197100000002  0.4441380700000011
  0.6696730000000031  0.2034518899999966  0.2343394600000011
  0.4373138999999995  0.3592221899999970  0.3947777200000004
  0.0879272999999969  0.3386656799999983  0.2495452799999995
  0.6193016100000008  0.0721225400000023  0.2130898099999996
  0.5748635799999988  0.0074539100000024  0.1731533100000036
  0.7911505599999984  0.6283478799999997  0.4461587999999992
  0.8571301300000016  0.6814948700000016  0.4835700900000006
  0.5524823499999982  0.8146089800000027  0.2234792100000007
  0.4604121699999979  0.7392891300000031  0.2404004500000028
  0.8581992800000009  0.9959624299999987  0.2597757500000029
  0.8658209499999998  0.9507328500000014  0.3093007299999968
  0.8840553499999970  0.8230401100000009  0.2336800400000030
  0.9136913999999976  0.7260765799999973  0.2043770699999996
  0.9143406800000022  0.1622711400000014  0.2083226900000028
  0.8970140600000036  0.0591977799999981  0.1818972200000033
  0.9388750399999992  0.5596254299999970  0.4152344800000023
  0.9940928999999983  0.5742220099999997  0.3686081800000025
  0.3720548499999978  0.3439983900000030  0.3446599600000013
  0.3965588100000019  0.3290305000000018  0.2931666100000001
  0.4504605600000033  0.0306967799999995  0.2364899299999976
  0.3486686500000005  0.1025338600000012  0.2363354800000010
  0.0482350799999978  0.6341019600000024  0.2995022300000016
  0.0487025099999983  0.7231430799999998  0.3362760999999992
  0.9263870799999978  0.2273183100000011  0.3621703999999966
  0.9212136299999969  0.1026331999999996  0.3730079999999987
  0.4298178199999967  0.5959337199999979  0.4276666599999999
  0.4650639400000003  0.4882378300000028  0.4060940299999984
  0.7973996599999964  0.2920679699999980  0.2197263799999973
  0.8671231399999968  0.3858738799999983  0.2004699599999995
  0.1842811699999984  0.9087196700000035  0.2603307500000014
  0.2984647199999984  0.9389177199999992  0.2763189400000030
  0.4905092500000023  0.0587781899999982  0.4824964800000018
  0.4059010900000004  0.0616236299999997  0.5205996700000028
  0.4230510800000005  0.5726563999999996  0.3468611099999990
  0.3666572500000029  0.4901821099999992  0.3154029499999993
  0.6755816599999989  0.3298616399999972  0.3772299700000019
  0.6507912000000005  0.2307914800000006  0.3476956299999969
  0.7692995000000025  0.3260557400000010  0.4433440099999970
  0.7923799900000006  0.4353737300000020  0.4222116600000021
  0.7136544199999975  0.5068839500000024  0.2785447300000001
  0.7915248700000035  0.5858239800000007  0.3003211799999974
  0.1367890799999998  0.8744547599999990  0.3907346599999997
  0.1581644099999977  0.8766067800000030  0.3385894600000015
  0.7493526100000025  0.7968146700000034  0.3020975100000030
  0.6456316299999969  0.7374595799999994  0.2884260499999982
  0.2125303799999969  0.2635852399999976  0.2250916099999998
  0.2528091900000007  0.2296805300000031  0.1780440900000002
  0.4156177400000018  0.3093946299999999  0.2205418699999981
  0.5021266500000010  0.3959724699999967  0.2359356600000027
  0.8837511099999986  0.3899618900000021  0.3144993200000030
  0.9570551199999997  0.4054495700000018  0.3552064300000026
  0.9770995700000000  0.5587691200000009  0.2148382199999972
  0.8619983500000004  0.5464723099999986  0.2340311000000028
  0.6910458999999989  0.1063024700000028  0.4741191199999975
  0.6631218599999968  0.9967912099999978  0.4539329099999989
  0.8831947799999966  0.8845917499999985  0.5088333599999970
  0.7865604899999994  0.8313835499999982  0.5346238999999997
  0.3395253500000024  0.6534315199999980  0.2787200499999969
  0.2861959999999968  0.7613893899999979  0.2647680199999982
  0.8821447600000027  0.4091353800000022  0.5169785800000000
  0.9997086600000031  0.3977744199999975  0.5016625900000022
  0.1823934299999976  0.6030816999999971  0.2426375499999978
  0.1245058599999993  0.4924900199999982  0.2493474099999986
  0.8573757099999995  0.9244941099999977  0.3862448200000017
  0.9766337200000024  0.9179688199999987  0.3658723200000011
  0.7191670899999991  0.0330330299999986  0.3051507999999998
  0.5998891899999990  0.0540078599999987  0.3190694800000031
  0.0485899199999977  0.8828030999999967  0.2102106199999980
  0.0606178399999990  0.0026612899999989  0.2173474800000008
  0.7747687700000014  0.8583170200000012  0.4556287799999978
  0.7094460699999985  0.8128935299999966  0.4163070099999970
  0.0772033900000011  0.1647662399999987  0.3997161200000008
  0.1809976600000027  0.1471095699999978  0.3716052300000001
  0.9204821000000010  0.0561249499999974  0.4902833000000015
  0.0217933799999983  0.9835014100000024  0.4816773900000015
  0.6950286800000001  0.6769476999999995  0.3697959300000022
  0.6160777500000023  0.6256866000000016  0.4043155299999981
  0.8838673400000019  0.2406760000000006  0.4859496400000012
  0.8755174499999967  0.1845499200000020  0.4390095899999977
  0.5714478499999984  0.5866385599999973  0.2383677899999981
  0.5171660500000002  0.5359515099999967  0.2796701199999987
  0.2574127600000011  0.2201882499999996  0.4369264299999998
  0.3550137800000002  0.1838895300000019  0.4657858300000015
  0.2599636300000014  0.1074542500000035  0.3038855799999993
  0.2569721300000012  0.2278614499999989  0.3136717300000029
  0.0843135200000020  0.5024335000000022  0.4478739799999971
  0.0295611399999984  0.5640702099999970  0.4848383200000015
  0.2185164699999973  0.9527082099999973  0.4618179100000006
  0.1579113599999999  0.0275692800000016  0.4289039900000020
  0.6733367699999988  0.1764346599999982  0.2652082399999998
  0.6028304499999990  0.2458998999999977  0.2341319399999975
  0.4003184199999978  0.3144773799999996  0.4179615899999973
  0.5054377800000012  0.3247606400000009  0.3854386399999967
  0.0178630099999992  0.3284486200000032  0.2350799499999994
  0.0701803400000003  0.3287759700000024  0.2811526200000003
 
  0.00000000E+00  0.00000000E+00  0.00000000E+00
  0.00000000E+00  0.00000000E+00  0.00000000E+00
  0.00000000E+00  0.00000000E+00  0.00000000E+00
  0.00000000E+00  0.00000000E+00  0.00000000E+00
  0.00000000E+00  0.00000000E+00  0.00000000E+00
  0.00000000E+00  0.00000000E+00  0.00000000E+00
  0.00000000E+00  0.00000000E+00  0.00000000E+00
  0.00000000E+00  0.00000000E+00  0.00000000E+00
  0.00000000E+00  0.00000000E+00  0.00000000E+00
  0.00000000E+00  0.00000000E+00  0.00000000E+00
  0.00000000E+00  0.00000000E+00  0.00000000E+00
  0.00000000E+00  0.00000000E+00  0.00000000E+00
  0.00000000E+00  0.00000000E+00  0.00000000E+00
  0.00000000E+00  0.00000000E+00  0.00000000E+00
  0.00000000E+00  0.00000000E+00  0.00000000E+00
  0.00000000E+00  0.00000000E+00  0.00000000E+00
  0.00000000E+00  0.00000000E+00  0.00000000E+00
  0.00000000E+00  0.00000000E+00  0.00000000E+00
  0.00000000E+00  0.00000000E+00  0.00000000E+00
  0.00000000E+00  0.00000000E+00  0.00000000E+00
  0.00000000E+00  0.00000000E+00  0.00000000E+00
  0.00000000E+00  0.00000000E+00  0.00000000E+00
  0.00000000E+00  0.00000000E+00  0.00000000E+00
  0.00000000E+00  0.00000000E+00  0.00000000E+00
  0.00000000E+00  0.00000000E+00  0.00000000E+00
  0.00000000E+00  0.00000000E+00  0.00000000E+00
  0.00000000E+00  0.00000000E+00  0.00000000E+00
  0.00000000E+00  0.00000000E+00  0.00000000E+00
  0.00000000E+00  0.00000000E+00  0.00000000E+00
  0.00000000E+00  0.00000000E+00  0.00000000E+00
  0.00000000E+00  0.00000000E+00  0.00000000E+00
  0.00000000E+00  0.00000000E+00  0.00000000E+00
  0.00000000E+00  0.00000000E+00  0.00000000E+00
  0.00000000E+00  0.00000000E+00  0.00000000E+00
  0.00000000E+00  0.00000000E+00  0.00000000E+00
  0.00000000E+00  0.00000000E+00  0.00000000E+00
  0.00000000E+00  0.00000000E+00  0.00000000E+00
  0.00000000E+00  0.00000000E+00  0.00000000E+00
  0.00000000E+00  0.00000000E+00  0.00000000E+00
  0.00000000E+00  0.00000000E+00  0.00000000E+00
  0.00000000E+00  0.00000000E+00  0.00000000E+00
  0.00000000E+00  0.00000000E+00  0.00000000E+00
  0.00000000E+00  0.00000000E+00  0.00000000E+00
  0.00000000E+00  0.00000000E+00  0.00000000E+00
  0.00000000E+00  0.00000000E+00  0.00000000E+00
  0.00000000E+00  0.00000000E+00  0.00000000E+00
  0.00000000E+00  0.00000000E+00  0.00000000E+00
  0.00000000E+00  0.00000000E+00  0.00000000E+00
  0.00000000E+00  0.00000000E+00  0.00000000E+00
  0.00000000E+00  0.00000000E+00  0.00000000E+00
  0.00000000E+00  0.00000000E+00  0.00000000E+00
  0.00000000E+00  0.00000000E+00  0.00000000E+00
  0.00000000E+00  0.00000000E+00  0.00000000E+00
  0.00000000E+00  0.00000000E+00  0.00000000E+00
  0.00000000E+00  0.00000000E+00  0.00000000E+00
  0.00000000E+00  0.00000000E+00  0.00000000E+00
  0.00000000E+00  0.00000000E+00  0.00000000E+00
  0.00000000E+00  0.00000000E+00  0.00000000E+00
  0.00000000E+00  0.00000000E+00  0.00000000E+00
  0.00000000E+00  0.00000000E+00  0.00000000E+00
  0.00000000E+00  0.00000000E+00  0.00000000E+00
  0.00000000E+00  0.00000000E+00  0.00000000E+00
  0.00000000E+00  0.00000000E+00  0.00000000E+00
  0.00000000E+00  0.00000000E+00  0.00000000E+00
  0.00000000E+00  0.00000000E+00  0.00000000E+00
  0.00000000E+00  0.00000000E+00  0.00000000E+00
  0.00000000E+00  0.00000000E+00  0.00000000E+00
  0.00000000E+00  0.00000000E+00  0.00000000E+00
  0.00000000E+00  0.00000000E+00  0.00000000E+00
  0.00000000E+00  0.00000000E+00  0.00000000E+00
  0.00000000E+00  0.00000000E+00  0.00000000E+00
  0.00000000E+00  0.00000000E+00  0.00000000E+00
  0.00000000E+00  0.00000000E+00  0.00000000E+00
  0.00000000E+00  0.00000000E+00  0.00000000E+00
  0.00000000E+00  0.00000000E+00  0.00000000E+00
  0.00000000E+00  0.00000000E+00  0.00000000E+00
  0.00000000E+00  0.00000000E+00  0.00000000E+00
  0.00000000E+00  0.00000000E+00  0.00000000E+00
  0.00000000E+00  0.00000000E+00  0.00000000E+00
  0.00000000E+00  0.00000000E+00  0.00000000E+00
  0.00000000E+00  0.00000000E+00  0.00000000E+00
  0.00000000E+00  0.00000000E+00  0.00000000E+00
  0.00000000E+00  0.00000000E+00  0.00000000E+00
  0.00000000E+00  0.00000000E+00  0.00000000E+00
  0.00000000E+00  0.00000000E+00  0.00000000E+00
  0.00000000E+00  0.00000000E+00  0.00000000E+00
  0.00000000E+00  0.00000000E+00  0.00000000E+00
  0.00000000E+00  0.00000000E+00  0.00000000E+00
  0.00000000E+00  0.00000000E+00  0.00000000E+00
  0.00000000E+00  0.00000000E+00  0.00000000E+00
  0.00000000E+00  0.00000000E+00  0.00000000E+00
  0.00000000E+00  0.00000000E+00  0.00000000E+00
  0.00000000E+00  0.00000000E+00  0.00000000E+00
  0.00000000E+00  0.00000000E+00  0.00000000E+00
  0.00000000E+00  0.00000000E+00  0.00000000E+00
  0.00000000E+00  0.00000000E+00  0.00000000E+00
  0.00000000E+00  0.00000000E+00  0.00000000E+00
  0.00000000E+00  0.00000000E+00  0.00000000E+00
  0.00000000E+00  0.00000000E+00  0.00000000E+00
  0.00000000E+00  0.00000000E+00  0.00000000E+00
  0.00000000E+00  0.00000000E+00  0.00000000E+00
  0.00000000E+00  0.00000000E+00  0.00000000E+00
  0.00000000E+00  0.00000000E+00  0.00000000E+00
  0.00000000E+00  0.00000000E+00  0.00000000E+00
  0.00000000E+00  0.00000000E+00  0.00000000E+00
  0.00000000E+00  0.00000000E+00  0.00000000E+00
  0.00000000E+00  0.00000000E+00  0.00000000E+00
  0.00000000E+00  0.00000000E+00  0.00000000E+00
  0.00000000E+00  0.00000000E+00  0.00000000E+00
  0.00000000E+00  0.00000000E+00  0.00000000E+00
  0.00000000E+00  0.00000000E+00  0.00000000E+00
  0.00000000E+00  0.00000000E+00  0.00000000E+00
  0.00000000E+00  0.00000000E+00  0.00000000E+00
  0.00000000E+00  0.00000000E+00  0.00000000E+00
  0.00000000E+00  0.00000000E+00  0.00000000E+00
  0.00000000E+00  0.00000000E+00  0.00000000E+00
  0.00000000E+00  0.00000000E+00  0.00000000E+00
  0.00000000E+00  0.00000000E+00  0.00000000E+00
  0.00000000E+00  0.00000000E+00  0.00000000E+00
  0.00000000E+00  0.00000000E+00  0.00000000E+00
  0.00000000E+00  0.00000000E+00  0.00000000E+00
  0.00000000E+00  0.00000000E+00  0.00000000E+00
  0.00000000E+00  0.00000000E+00  0.00000000E+00
  0.00000000E+00  0.00000000E+00  0.00000000E+00
  0.00000000E+00  0.00000000E+00  0.00000000E+00
  0.00000000E+00  0.00000000E+00  0.00000000E+00
  0.00000000E+00  0.00000000E+00  0.00000000E+00
  0.00000000E+00  0.00000000E+00  0.00000000E+00
  0.00000000E+00  0.00000000E+00  0.00000000E+00
  0.00000000E+00  0.00000000E+00  0.00000000E+00
  0.00000000E+00  0.00000000E+00  0.00000000E+00
  0.00000000E+00  0.00000000E+00  0.00000000E+00
  0.00000000E+00  0.00000000E+00  0.00000000E+00
  0.00000000E+00  0.00000000E+00  0.00000000E+00
  0.00000000E+00  0.00000000E+00  0.00000000E+00
  0.00000000E+00  0.00000000E+00  0.00000000E+00
  0.00000000E+00  0.00000000E+00  0.00000000E+00
  0.00000000E+00  0.00000000E+00  0.00000000E+00
  0.00000000E+00  0.00000000E+00  0.00000000E+00
  0.00000000E+00  0.00000000E+00  0.00000000E+00
  0.00000000E+00  0.00000000E+00  0.00000000E+00
  0.00000000E+00  0.00000000E+00  0.00000000E+00
  0.00000000E+00  0.00000000E+00  0.00000000E+00
  0.00000000E+00  0.00000000E+00  0.00000000E+00
  0.00000000E+00  0.00000000E+00  0.00000000E+00
  0.00000000E+00  0.00000000E+00  0.00000000E+00
  0.00000000E+00  0.00000000E+00  0.00000000E+00
  0.00000000E+00  0.00000000E+00  0.00000000E+00
  0.00000000E+00  0.00000000E+00  0.00000000E+00
  0.00000000E+00  0.00000000E+00  0.00000000E+00
  0.00000000E+00  0.00000000E+00  0.00000000E+00
  0.00000000E+00  0.00000000E+00  0.00000000E+00
  0.00000000E+00  0.00000000E+00  0.00000000E+00
  0.00000000E+00  0.00000000E+00  0.00000000E+00
  0.00000000E+00  0.00000000E+00  0.00000000E+00
  0.00000000E+00  0.00000000E+00  0.00000000E+00
  0.00000000E+00  0.00000000E+00  0.00000000E+00
  0.00000000E+00  0.00000000E+00  0.00000000E+00
  0.00000000E+00  0.00000000E+00  0.00000000E+00
  0.00000000E+00  0.00000000E+00  0.00000000E+00
  0.00000000E+00  0.00000000E+00  0.00000000E+00
  0.00000000E+00  0.00000000E+00  0.00000000E+00
  0.00000000E+00  0.00000000E+00  0.00000000E+00
  0.00000000E+00  0.00000000E+00  0.00000000E+00
  0.00000000E+00  0.00000000E+00  0.00000000E+00
  0.00000000E+00  0.00000000E+00  0.00000000E+00
  0.00000000E+00  0.00000000E+00  0.00000000E+00
  0.00000000E+00  0.00000000E+00  0.00000000E+00
  0.00000000E+00  0.00000000E+00  0.00000000E+00
  0.00000000E+00  0.00000000E+00  0.00000000E+00
  0.00000000E+00  0.00000000E+00  0.00000000E+00
  0.00000000E+00  0.00000000E+00  0.00000000E+00
  0.00000000E+00  0.00000000E+00  0.00000000E+00
  0.00000000E+00  0.00000000E+00  0.00000000E+00
  0.00000000E+00  0.00000000E+00  0.00000000E+00
  0.00000000E+00  0.00000000E+00  0.00000000E+00
  0.00000000E+00  0.00000000E+00  0.00000000E+00
  0.00000000E+00  0.00000000E+00  0.00000000E+00
  0.00000000E+00  0.00000000E+00  0.00000000E+00
  0.00000000E+00  0.00000000E+00  0.00000000E+00
  0.00000000E+00  0.00000000E+00  0.00000000E+00
  0.00000000E+00  0.00000000E+00  0.00000000E+00
  0.00000000E+00  0.00000000E+00  0.00000000E+00
  0.00000000E+00  0.00000000E+00  0.00000000E+00
  0.00000000E+00  0.00000000E+00  0.00000000E+00
  0.00000000E+00  0.00000000E+00  0.00000000E+00
  0.00000000E+00  0.00000000E+00  0.00000000E+00
  0.00000000E+00  0.00000000E+00  0.00000000E+00
  0.00000000E+00  0.00000000E+00  0.00000000E+00
  0.00000000E+00  0.00000000E+00  0.00000000E+00
  0.00000000E+00  0.00000000E+00  0.00000000E+00
  0.00000000E+00  0.00000000E+00  0.00000000E+00
  0.00000000E+00  0.00000000E+00  0.00000000E+00
  0.00000000E+00  0.00000000E+00  0.00000000E+00
  0.00000000E+00  0.00000000E+00  0.00000000E+00
  0.00000000E+00  0.00000000E+00  0.00000000E+00
  0.00000000E+00  0.00000000E+00  0.00000000E+00
