 C  N Mn  O  H                          
   1.00000000000000     
    12.5075085000000001    0.0000000000000000    0.0000000000000000
     0.0000000000000000   12.7423731000000000    0.0000000000000000
     0.0000000000000000    0.0000000000000000   30.0000000000000000
   C    N    Mn   O    H 
    54     4     1    46    92
Direct
  0.9907456828383757  0.0478781562960564  0.0615003834011776
  0.0911560256076872  0.1027706985214072  0.0605073933780714
  0.0906863115241999  0.2140254683355373  0.0594120920515670
  0.9907852853889970  0.2692490496231267  0.0595111268126102
  0.1920481277776919  0.0483212176821887  0.0606566144145778
  0.2920521429022720  0.1045782255467064  0.0596143756794366
  0.2909561149085380  0.2168635022320000  0.0587946751324564
  0.1896375392174594  0.2697951813699657  0.0587530785725704
  0.3923906409603969  0.0489228321405583  0.0599210367753014
  0.4908091984879732  0.1080504317969656  0.0595355605378009
  0.4907819492481910  0.2222865001496998  0.0594529206640484
  0.3886539776014034  0.2772999441129332  0.0594876410910095
  0.5892118682670392  0.0489666545941185  0.0598472420426188
  0.6895401501594026  0.1044743938305838  0.0594590431951794
  0.6906184498253695  0.2166190691383251  0.0585206942344169
  0.5929627335842090  0.2771610881042404  0.0589868907301914
  0.7894574457262961  0.0483851052441655  0.0607641058082473
  0.8903223425786905  0.1027427995594405  0.0605539834980436
  0.8908962478715600  0.2139811318248366  0.0594663102320441
  0.7919206184310439  0.2696369103581223  0.0587424553815560
  0.9908633807179276  0.3804646833210870  0.0597797563963564
  0.0889154820438237  0.4368613472476027  0.0597911847260375
  0.0889083134848324  0.5481228446841214  0.0611445216301490
  0.9908569946922325  0.6044980374291473  0.0624596128637212
  0.1876633507387489  0.3813319116305892  0.0589652925179974
  0.2850704910649901  0.4366101403775932  0.0598874529851161
  0.2850898560041088  0.5482921096809558  0.0609641511159099
  0.1876632375277295  0.6036630634195636  0.0613034932091715
  0.6964401491271375  0.4365486819609207  0.0596837748821345
  0.6964805577859866  0.5483652974461271  0.0611429807856235
  0.7939432784969646  0.3811849358531159  0.0592277041846898
  0.8926953770047679  0.4367778967876705  0.0603071536222487
  0.8927148108875307  0.5481704633800187  0.0617858188330999
  0.7939364513424085  0.6037398187155691  0.0620449114338672
  0.9908113467668199  0.7156459652673161  0.0636391175910309
  0.0906702125084478  0.7708586905274815  0.0632937762764243
  0.9907889448312240  0.9370787951774660  0.0629930300962584
  0.1896302747402969  0.7151879342087795  0.0622199768223876
  0.2909705783164637  0.7680994819154907  0.0615836785424432
  0.2920327524768739  0.8803087273558816  0.0613233792651569
  0.1920861522887057  0.9364404667194142  0.0617876675077632
  0.3886292067056362  0.7076451084108915  0.0620078558537547
  0.4906990588934725  0.7626622699043234  0.0621480116573065
  0.4907482930175255  0.8768835306050088  0.0612467586381170
  0.3922888309624231  0.9359201113128908  0.0607287293385760
  0.5928582751008888  0.7077711138645092  0.0622027682629364
  0.6905923479291095  0.7682739381518723  0.0623314315942601
  0.6895044378784356  0.8805193038478033  0.0619264705811939
  0.5891508812435849  0.9360256972304849  0.0609153773276554
  0.7920010099757290  0.7152658422536277  0.0630572578095001
  0.8909462993724462  0.7708879596062085  0.0638336124743382
  0.7895027635624788  0.9366153985229794  0.0622327933070328
  0.0912196060665785  0.8821443049678184  0.0630461002617411
  0.8903401410303037  0.8822167638513844  0.0634288511985799
  0.3832812132368755  0.3859093453090560  0.0610564702793805
  0.3833164314124743  0.5988778841310551  0.0627776862315704
  0.5984427173787110  0.3857083453397433  0.0597894919314253
  0.5983318374581555  0.5990905881401565  0.0623909103189512
  0.4911833456242403  0.4921166781795384  0.0691691585671379
  0.5069606539425444  0.4837563913883307  0.1382461335700264
  0.7944803552690434  0.8340092094589535  0.2409858730291521
  0.7583975237532665  0.8213092858217776  0.3941442424001152
  0.3925718641416414  0.3392435644810221  0.1888600775992900
  0.0781609114373631  0.2574890128578792  0.1888812441219108
  0.9090233899337145  0.5229581615288413  0.2514727100934855
  0.7494021806636045  0.9412581004835825  0.4959691434729390
  0.4506122605009117  0.6411312880575589  0.1942209424823294
  0.4229393217353503  0.4767520643670548  0.2624712288237995
  0.2946230997160528  0.3576662335446407  0.3814444956350435
  0.1966362285178780  0.1888964101732291  0.4940632732536862
  0.5711197883508892  0.1868619997611356  0.2899898893306887
  0.2281676676881783  0.0886680432700601  0.1764019691932041
  0.2502851769205023  0.5715439449959537  0.3057393526180632
  0.9782381555781271  0.3238062375641488  0.4374087119804596
  0.5760641583332596  0.3074206854403232  0.4052326348261681
  0.6556976232131482  0.7585860925301033  0.3112691718852111
  0.7904655179058163  0.6080754706497326  0.4077395978390725
  0.0920730820329043  0.9424625856574439  0.2987597027100960
  0.5661640279484503  0.1171053384423453  0.5060235078025215
  0.7882327206159118  0.4773890650915701  0.1728433635836725
  0.1007965157118787  0.9270430655428245  0.2044429838955641
  0.0151497700792147  0.5571719330051840  0.4108468860574189
  0.6241204203665046  0.7855877868315750  0.1804459002592497
  0.8205622136570043  0.1993145014216825  0.3893407945189141
  0.5766657581585274  0.8091924704618549  0.4538016613037094
  0.6476524615170490  0.3851157086126589  0.4883283331331871
  0.4058327916966026  0.0894328785909913  0.2362429212771057
  0.2155015184391455  0.1080929361810595  0.3429197237226415
  0.7431707448796924  0.5529257520286350  0.3190112695340820
  0.5788043407675069  0.3953704414266364  0.3218061218080491
  0.4556971234725147  0.8684218692701670  0.3029628991403556
  0.8121130253651928  0.1959197953399818  0.2968852207284198
  0.3670460061326217  0.8429558073328411  0.4181441940615814
  0.1106523504728104  0.6203901489688396  0.2327568895377948
  0.3991408396089730  0.2531661358560884  0.4653368340188265
  0.9824905317974459  0.3215788693789473  0.2695226532009394
  0.1254920209783703  0.7611368276569644  0.4189773097899134
  0.4459927907787891  0.0638796356388772  0.3502142707366485
  0.2283326686230088  0.7817613076693346  0.3358525416525909
  0.1006249636986216  0.4292533180195658  0.3401624290155131
  0.0641791040661140  0.1287179606764760  0.4179423460638366
  0.6357745697915215  0.6115362380596882  0.4844077595015693
  0.8698818226400995  0.9890623053223252  0.3098853231219900
  0.6448381950913187  0.0721486951032572  0.4221170419876628
  0.9439355666204579  0.9298800868618182  0.4342881330835818
  0.4826407127209943  0.5475124589017459  0.1553742401518398
  0.4669105694457996  0.4244057242816221  0.1519778411949484
  0.8201030362897327  0.8982139521944491  0.2553988048458021
  0.7502202043086295  0.8017954422287490  0.2644777546734088
  0.7774700243230097  0.7464409652319736  0.3995698239433007
  0.8210535231623932  0.8616989026394259  0.4041327102490772
  0.4083586306634040  0.2662277662109406  0.1957940472568908
  0.3962411033104127  0.3778469777821706  0.2174464355626220
  0.1347452037402473  0.2047842339090350  0.1837915725921455
  0.0388285362541330  0.2610573766721943  0.1609464800233456
  0.9740018412484932  0.5641442347447674  0.2444017988420052
  0.8681831427600643  0.5181602053064659  0.2233484825344544
  0.7186078643471191  1.0003588682780515  0.5122686390001133
  0.6880452287763651  0.8957834478650862  0.4894046753614954
  0.4547045686721057  0.5996545739588646  0.2218044997213962
  0.5093190677103836  0.6928612153866118  0.1950294921905008
  0.3624914794026417  0.5077790981303070  0.2790884725150097
  0.4737330419988291  0.4512739404543831  0.2852133768978383
  0.3269381479278804  0.3301861532408313  0.4087749277196814
  0.3391569467869520  0.4169510797347064  0.3727784354059004
  0.1541286119224209  0.2494219245587869  0.5029523193036083
  0.1547871495374976  0.1568624551887273  0.4697487504688241
  0.5219226423331429  0.1743616859308211  0.2650116883859781
  0.5680407218267548  0.2627365209050114  0.2970808785441152
  0.1798771611369218  0.0285732419252398  0.1837448851613455
  0.2474296317118553  0.0797074908765909  0.1451056151948677
  0.2422764406466367  0.6435001885836602  0.3177639827366151
  0.1933773926479272  0.5272541948675858  0.3188259165266885
  0.9087941133524760  0.3111595724150721  0.4231135721010578
  0.9966626220568665  0.3969898141018040  0.4306899984994975
  0.6104281640450183  0.3383363577497955  0.4318889402763787
  0.5065046975102283  0.2845254083289995  0.4165926590901866
  0.6862482575212462  0.7916362698529634  0.3379590547008753
  0.5843408797298959  0.7908264158935862  0.3072106509164775
  0.7395073046396524  0.5887074945175484  0.4312846552292527
  0.7667462117798695  0.5768990554250892  0.3790494824241335
  0.1321414643119719  0.0016594797766294  0.3116804503237997
  0.0162510442185290  0.9548413190613851  0.3063431470075930
  0.5203359861940364  0.0576537512704632  0.5132015981217964
  0.5919888378189521  0.1029253447398080  0.4750644010412899
  0.8219967518854936  0.4815564317472626  0.1435976528937427
  0.7128331382532532  0.4918654369993348  0.1670160478077027
  0.0938938700665071  0.9305947862085149  0.2372849867484432
  0.0299390576152353  0.9098479889773935  0.1932501020227251
  0.9380292574031506  0.5733295249487013  0.4098034766641859
  0.0327636605162110  0.5243730021226802  0.3820286849738873
  0.6867923455692864  0.8111990204989596  0.1971918135490550
  0.6417779697375374  0.7939646180767463  0.1490599576788140
  0.8820783354786342  0.1522187423038624  0.3908856912987891
  0.8106338701322890  0.2100591883585683  0.3567834942570099
  0.6265088805325264  0.8189297944383072  0.4286647361732552
  0.5037581395434266  0.8212067093326456  0.4419386860387958
  0.6216472660538200  0.4576901487076159  0.4901234084423883
  0.6013610158634201  0.3439049789454645  0.5077096289986212
  0.3457912471969229  0.0854145770233338  0.2148292648396153
  0.4283756324994797  0.0169043826434077  0.2408055299565173
  0.2918329213643031  0.0917733899256068  0.3482421191995345
  0.2178166119432203  0.1723099487480012  0.3253072146160578
  0.8038192254603697  0.5473673108806117  0.2979471435924315
  0.7064922554513009  0.6193632889457377  0.3114844629065615
  0.5774165212503448  0.3717123687929851  0.3534673514132404
  0.6405640855714553  0.4431861041310971  0.3189928936153775
  0.3861976226921995  0.8344424419757793  0.3065952587711117
  0.4510651109980657  0.9345536543703812  0.3201296264250739
  0.8653536326200918  0.2430282625441520  0.2822712253467892
  0.7415294608658816  0.2038615703648098  0.2830938374136535
  0.3580323164590546  0.8369360777888581  0.3858837799525282
  0.3001499874378854  0.8142889331328647  0.4298627294853070
  0.1444812112456657  0.6454215886624595  0.2055736509653420
  0.1696179434218072  0.6015746395003950  0.2530314319217850
  0.4514453684170754  0.2095920253852497  0.4813300143045215
  0.3283359236155268  0.2281106724168038  0.4757008228440330
  0.9555719851465281  0.3925378106502729  0.2610025534614730
  0.0188265987964430  0.2954728445101890  0.2422364649531950
  0.0694123161946018  0.8127971338950682  0.4253876372660268
  0.0888789515947294  0.6923282479676587  0.4183316591701269
  0.4889759808434730  0.1110607587716927  0.3307618238085406
  0.4865392185859135  0.0607336711307516  0.3780533938955773
  0.1797363306011013  0.8260069194384058  0.3179576790029900
  0.1899271054078510  0.7758301722425957  0.3647339756394445
  0.1526495292517132  0.3867986702502311  0.3568358746669673
  0.0674996997940242  0.3840730654876019  0.3171780130842537
  0.1159365040771597  0.1254949524670538  0.3931915883330296
  0.0420957105921911  0.2035041591007735  0.4209183369330285
  0.6027697933708608  0.6783519118263763  0.4739815163078578
  0.6711251973570035  0.6300577107421538  0.5122098510846401
  0.8224166637688328  0.9617869706218233  0.3328382996366693
  0.8473462984047943  0.0629088363239940  0.3043890467630635
  0.6960326647016156  0.0192094855151660  0.4322240476703080
  0.6900380451849495  0.1298817119228682  0.4107037723043004
  0.9035132427922199  0.9385529802388819  0.4620167067335731
  0.9810826123676690  0.9971144468557476  0.4294044254758561
 
  0.00000000E+00  0.00000000E+00  0.00000000E+00
  0.00000000E+00  0.00000000E+00  0.00000000E+00
  0.00000000E+00  0.00000000E+00  0.00000000E+00
  0.00000000E+00  0.00000000E+00  0.00000000E+00
  0.00000000E+00  0.00000000E+00  0.00000000E+00
  0.00000000E+00  0.00000000E+00  0.00000000E+00
  0.00000000E+00  0.00000000E+00  0.00000000E+00
  0.00000000E+00  0.00000000E+00  0.00000000E+00
  0.00000000E+00  0.00000000E+00  0.00000000E+00
  0.00000000E+00  0.00000000E+00  0.00000000E+00
  0.00000000E+00  0.00000000E+00  0.00000000E+00
  0.00000000E+00  0.00000000E+00  0.00000000E+00
  0.00000000E+00  0.00000000E+00  0.00000000E+00
  0.00000000E+00  0.00000000E+00  0.00000000E+00
  0.00000000E+00  0.00000000E+00  0.00000000E+00
  0.00000000E+00  0.00000000E+00  0.00000000E+00
  0.00000000E+00  0.00000000E+00  0.00000000E+00
  0.00000000E+00  0.00000000E+00  0.00000000E+00
  0.00000000E+00  0.00000000E+00  0.00000000E+00
  0.00000000E+00  0.00000000E+00  0.00000000E+00
  0.00000000E+00  0.00000000E+00  0.00000000E+00
  0.00000000E+00  0.00000000E+00  0.00000000E+00
  0.00000000E+00  0.00000000E+00  0.00000000E+00
  0.00000000E+00  0.00000000E+00  0.00000000E+00
  0.00000000E+00  0.00000000E+00  0.00000000E+00
  0.00000000E+00  0.00000000E+00  0.00000000E+00
  0.00000000E+00  0.00000000E+00  0.00000000E+00
  0.00000000E+00  0.00000000E+00  0.00000000E+00
  0.00000000E+00  0.00000000E+00  0.00000000E+00
  0.00000000E+00  0.00000000E+00  0.00000000E+00
  0.00000000E+00  0.00000000E+00  0.00000000E+00
  0.00000000E+00  0.00000000E+00  0.00000000E+00
  0.00000000E+00  0.00000000E+00  0.00000000E+00
  0.00000000E+00  0.00000000E+00  0.00000000E+00
  0.00000000E+00  0.00000000E+00  0.00000000E+00
  0.00000000E+00  0.00000000E+00  0.00000000E+00
  0.00000000E+00  0.00000000E+00  0.00000000E+00
  0.00000000E+00  0.00000000E+00  0.00000000E+00
  0.00000000E+00  0.00000000E+00  0.00000000E+00
  0.00000000E+00  0.00000000E+00  0.00000000E+00
  0.00000000E+00  0.00000000E+00  0.00000000E+00
  0.00000000E+00  0.00000000E+00  0.00000000E+00
  0.00000000E+00  0.00000000E+00  0.00000000E+00
  0.00000000E+00  0.00000000E+00  0.00000000E+00
  0.00000000E+00  0.00000000E+00  0.00000000E+00
  0.00000000E+00  0.00000000E+00  0.00000000E+00
  0.00000000E+00  0.00000000E+00  0.00000000E+00
  0.00000000E+00  0.00000000E+00  0.00000000E+00
  0.00000000E+00  0.00000000E+00  0.00000000E+00
  0.00000000E+00  0.00000000E+00  0.00000000E+00
  0.00000000E+00  0.00000000E+00  0.00000000E+00
  0.00000000E+00  0.00000000E+00  0.00000000E+00
  0.00000000E+00  0.00000000E+00  0.00000000E+00
  0.00000000E+00  0.00000000E+00  0.00000000E+00
  0.00000000E+00  0.00000000E+00  0.00000000E+00
  0.00000000E+00  0.00000000E+00  0.00000000E+00
  0.00000000E+00  0.00000000E+00  0.00000000E+00
  0.00000000E+00  0.00000000E+00  0.00000000E+00
  0.00000000E+00  0.00000000E+00  0.00000000E+00
  0.00000000E+00  0.00000000E+00  0.00000000E+00
  0.00000000E+00  0.00000000E+00  0.00000000E+00
  0.00000000E+00  0.00000000E+00  0.00000000E+00
  0.00000000E+00  0.00000000E+00  0.00000000E+00
  0.00000000E+00  0.00000000E+00  0.00000000E+00
  0.00000000E+00  0.00000000E+00  0.00000000E+00
  0.00000000E+00  0.00000000E+00  0.00000000E+00
  0.00000000E+00  0.00000000E+00  0.00000000E+00
  0.00000000E+00  0.00000000E+00  0.00000000E+00
  0.00000000E+00  0.00000000E+00  0.00000000E+00
  0.00000000E+00  0.00000000E+00  0.00000000E+00
  0.00000000E+00  0.00000000E+00  0.00000000E+00
  0.00000000E+00  0.00000000E+00  0.00000000E+00
  0.00000000E+00  0.00000000E+00  0.00000000E+00
  0.00000000E+00  0.00000000E+00  0.00000000E+00
  0.00000000E+00  0.00000000E+00  0.00000000E+00
  0.00000000E+00  0.00000000E+00  0.00000000E+00
  0.00000000E+00  0.00000000E+00  0.00000000E+00
  0.00000000E+00  0.00000000E+00  0.00000000E+00
  0.00000000E+00  0.00000000E+00  0.00000000E+00
  0.00000000E+00  0.00000000E+00  0.00000000E+00
  0.00000000E+00  0.00000000E+00  0.00000000E+00
  0.00000000E+00  0.00000000E+00  0.00000000E+00
  0.00000000E+00  0.00000000E+00  0.00000000E+00
  0.00000000E+00  0.00000000E+00  0.00000000E+00
  0.00000000E+00  0.00000000E+00  0.00000000E+00
  0.00000000E+00  0.00000000E+00  0.00000000E+00
  0.00000000E+00  0.00000000E+00  0.00000000E+00
  0.00000000E+00  0.00000000E+00  0.00000000E+00
  0.00000000E+00  0.00000000E+00  0.00000000E+00
  0.00000000E+00  0.00000000E+00  0.00000000E+00
  0.00000000E+00  0.00000000E+00  0.00000000E+00
  0.00000000E+00  0.00000000E+00  0.00000000E+00
  0.00000000E+00  0.00000000E+00  0.00000000E+00
  0.00000000E+00  0.00000000E+00  0.00000000E+00
  0.00000000E+00  0.00000000E+00  0.00000000E+00
  0.00000000E+00  0.00000000E+00  0.00000000E+00
  0.00000000E+00  0.00000000E+00  0.00000000E+00
  0.00000000E+00  0.00000000E+00  0.00000000E+00
  0.00000000E+00  0.00000000E+00  0.00000000E+00
  0.00000000E+00  0.00000000E+00  0.00000000E+00
  0.00000000E+00  0.00000000E+00  0.00000000E+00
  0.00000000E+00  0.00000000E+00  0.00000000E+00
  0.00000000E+00  0.00000000E+00  0.00000000E+00
  0.00000000E+00  0.00000000E+00  0.00000000E+00
  0.00000000E+00  0.00000000E+00  0.00000000E+00
  0.00000000E+00  0.00000000E+00  0.00000000E+00
  0.00000000E+00  0.00000000E+00  0.00000000E+00
  0.00000000E+00  0.00000000E+00  0.00000000E+00
  0.00000000E+00  0.00000000E+00  0.00000000E+00
  0.00000000E+00  0.00000000E+00  0.00000000E+00
  0.00000000E+00  0.00000000E+00  0.00000000E+00
  0.00000000E+00  0.00000000E+00  0.00000000E+00
  0.00000000E+00  0.00000000E+00  0.00000000E+00
  0.00000000E+00  0.00000000E+00  0.00000000E+00
  0.00000000E+00  0.00000000E+00  0.00000000E+00
  0.00000000E+00  0.00000000E+00  0.00000000E+00
  0.00000000E+00  0.00000000E+00  0.00000000E+00
  0.00000000E+00  0.00000000E+00  0.00000000E+00
  0.00000000E+00  0.00000000E+00  0.00000000E+00
  0.00000000E+00  0.00000000E+00  0.00000000E+00
  0.00000000E+00  0.00000000E+00  0.00000000E+00
  0.00000000E+00  0.00000000E+00  0.00000000E+00
  0.00000000E+00  0.00000000E+00  0.00000000E+00
  0.00000000E+00  0.00000000E+00  0.00000000E+00
  0.00000000E+00  0.00000000E+00  0.00000000E+00
  0.00000000E+00  0.00000000E+00  0.00000000E+00
  0.00000000E+00  0.00000000E+00  0.00000000E+00
  0.00000000E+00  0.00000000E+00  0.00000000E+00
  0.00000000E+00  0.00000000E+00  0.00000000E+00
  0.00000000E+00  0.00000000E+00  0.00000000E+00
  0.00000000E+00  0.00000000E+00  0.00000000E+00
  0.00000000E+00  0.00000000E+00  0.00000000E+00
  0.00000000E+00  0.00000000E+00  0.00000000E+00
  0.00000000E+00  0.00000000E+00  0.00000000E+00
  0.00000000E+00  0.00000000E+00  0.00000000E+00
  0.00000000E+00  0.00000000E+00  0.00000000E+00
  0.00000000E+00  0.00000000E+00  0.00000000E+00
  0.00000000E+00  0.00000000E+00  0.00000000E+00
  0.00000000E+00  0.00000000E+00  0.00000000E+00
  0.00000000E+00  0.00000000E+00  0.00000000E+00
  0.00000000E+00  0.00000000E+00  0.00000000E+00
  0.00000000E+00  0.00000000E+00  0.00000000E+00
  0.00000000E+00  0.00000000E+00  0.00000000E+00
  0.00000000E+00  0.00000000E+00  0.00000000E+00
  0.00000000E+00  0.00000000E+00  0.00000000E+00
  0.00000000E+00  0.00000000E+00  0.00000000E+00
  0.00000000E+00  0.00000000E+00  0.00000000E+00
  0.00000000E+00  0.00000000E+00  0.00000000E+00
  0.00000000E+00  0.00000000E+00  0.00000000E+00
  0.00000000E+00  0.00000000E+00  0.00000000E+00
  0.00000000E+00  0.00000000E+00  0.00000000E+00
  0.00000000E+00  0.00000000E+00  0.00000000E+00
  0.00000000E+00  0.00000000E+00  0.00000000E+00
  0.00000000E+00  0.00000000E+00  0.00000000E+00
  0.00000000E+00  0.00000000E+00  0.00000000E+00
  0.00000000E+00  0.00000000E+00  0.00000000E+00
  0.00000000E+00  0.00000000E+00  0.00000000E+00
  0.00000000E+00  0.00000000E+00  0.00000000E+00
  0.00000000E+00  0.00000000E+00  0.00000000E+00
  0.00000000E+00  0.00000000E+00  0.00000000E+00
  0.00000000E+00  0.00000000E+00  0.00000000E+00
  0.00000000E+00  0.00000000E+00  0.00000000E+00
  0.00000000E+00  0.00000000E+00  0.00000000E+00
  0.00000000E+00  0.00000000E+00  0.00000000E+00
  0.00000000E+00  0.00000000E+00  0.00000000E+00
  0.00000000E+00  0.00000000E+00  0.00000000E+00
  0.00000000E+00  0.00000000E+00  0.00000000E+00
  0.00000000E+00  0.00000000E+00  0.00000000E+00
  0.00000000E+00  0.00000000E+00  0.00000000E+00
  0.00000000E+00  0.00000000E+00  0.00000000E+00
  0.00000000E+00  0.00000000E+00  0.00000000E+00
  0.00000000E+00  0.00000000E+00  0.00000000E+00
  0.00000000E+00  0.00000000E+00  0.00000000E+00
  0.00000000E+00  0.00000000E+00  0.00000000E+00
  0.00000000E+00  0.00000000E+00  0.00000000E+00
  0.00000000E+00  0.00000000E+00  0.00000000E+00
  0.00000000E+00  0.00000000E+00  0.00000000E+00
  0.00000000E+00  0.00000000E+00  0.00000000E+00
  0.00000000E+00  0.00000000E+00  0.00000000E+00
  0.00000000E+00  0.00000000E+00  0.00000000E+00
  0.00000000E+00  0.00000000E+00  0.00000000E+00
  0.00000000E+00  0.00000000E+00  0.00000000E+00
  0.00000000E+00  0.00000000E+00  0.00000000E+00
  0.00000000E+00  0.00000000E+00  0.00000000E+00
  0.00000000E+00  0.00000000E+00  0.00000000E+00
  0.00000000E+00  0.00000000E+00  0.00000000E+00
  0.00000000E+00  0.00000000E+00  0.00000000E+00
  0.00000000E+00  0.00000000E+00  0.00000000E+00
  0.00000000E+00  0.00000000E+00  0.00000000E+00
  0.00000000E+00  0.00000000E+00  0.00000000E+00
  0.00000000E+00  0.00000000E+00  0.00000000E+00
  0.00000000E+00  0.00000000E+00  0.00000000E+00
  0.00000000E+00  0.00000000E+00  0.00000000E+00
  0.00000000E+00  0.00000000E+00  0.00000000E+00
  0.00000000E+00  0.00000000E+00  0.00000000E+00
  0.00000000E+00  0.00000000E+00  0.00000000E+00
  0.00000000E+00  0.00000000E+00  0.00000000E+00
