 C  N Cu  O  H                          
   1.00000000000000     
    12.4568083000000005    0.0000000000000000    0.0000000000000000
     0.0000000000000000   12.7194003999999996    0.0000000000000000
     0.0000000000000000    0.0000000000000000   30.0000000000000000
   C    N    Cu   O    H 
    54     4     1    46    91
Direct
  0.1943079414639378  0.3734371359808676  0.0963540570816484
  0.2946250696731030  0.4284904885087865  0.0976339163182698
  0.2939637179021989  0.5397119755706704  0.0978192029027846
  0.1942382583688373  0.5949442616564355  0.0966101342929717
  0.3951948993751755  0.3738596688098332  0.0989980168226635
  0.4952012129549385  0.4298227020210149  0.1009138319286994
  0.4939548606142941  0.5418545479396637  0.1015497922474579
  0.3933045874169993  0.5953372501217372  0.0996424690827943
  0.5955191672207958  0.3745191182213918  0.1020373115709178
  0.6942102643072476  0.4337781015505896  0.1026815626683709
  0.6942755509167174  0.5475654330920872  0.1040287145491461
  0.5917819061425899  0.6025653646783251  0.1041521251392642
  0.7928438680892190  0.3745927138050425  0.1011006537921099
  0.8930637434481375  0.4300059794673617  0.0991951817127749
  0.8944565171459329  0.5420250678127795  0.0997606980948828
  0.7967211365783171  0.6026783675695524  0.1031227966543674
  0.9932048279057420  0.3739633144009237  0.0971214434347691
  0.0939947953587836  0.4285909178295527  0.0963642451222746
  0.0945021160945801  0.5398452180303605  0.0965812273880155
  0.9951224753899853  0.5954861266881937  0.0976646361856768
  0.1941838252183149  0.7063963008035388  0.0960614250435190
  0.2927492933278394  0.7623369664586253  0.0970443038148099
  0.2928361735048502  0.8737229229596772  0.0967101064960858
  0.1942321134905982  0.9297080095596324  0.0957193416991688
  0.3916878317067672  0.7068143365755100  0.0993801603064292
  0.4900543616987137  0.7613880980850489  0.1021950685909826
  0.4900658737617182  0.8747345942595059  0.1018707271723520
  0.3917995867152256  0.9292856406366317  0.0987237968964485
  0.8984927887292583  0.7613893163090767  0.1004773265693463
  0.8984690597582791  0.8746478989287764  0.1004736206581431
  0.9967696672355728  0.7068473250249181  0.0973105665139771
  0.0956883516677502  0.7623503207444554  0.0957344702468228
  0.0957555073961951  0.8736356855437465  0.0958013722650387
  0.9968516900059621  0.9292016257325137  0.0976104076678392
  0.1943233718306869  0.0411454314091461  0.0961797582192448
  0.2940754963124548  0.0963692960787975  0.0970304066069968
  0.1943223750210415  0.2625844767268489  0.0961929171846936
  0.3933717352358088  0.0406980288584759  0.0987147237771586
  0.4939774427384133  0.0941594038932150  0.1007638764391905
  0.4951833497170063  0.2061915731391793  0.1004196094682416
  0.3951670650689836  0.2621245136591963  0.0986770253331798
  0.5917713488282820  0.0334095457710855  0.1034817931760862
  0.6942970459789083  0.0884172142868854  0.1035094008765812
  0.6942240543883974  0.2022983533760626  0.1023653627612898
  0.5954823463139676  0.2615742838951412  0.1018421736188952
  0.7967877461368709  0.0333413053362551  0.1027540525844689
  0.8945511003212325  0.0941333446937197  0.0998252343939016
  0.8932297680108023  0.2061214579665922  0.0992438478281881
  0.7929428939378875  0.2615643046591388  0.1010020454654567
  0.9952720322383745  0.0406454556020036  0.0978949937686206
  0.0946075620765342  0.0962920748544687  0.0965825568685242
  0.9932962468799297  0.2620779104129298  0.0972678237717112
  0.2946620006583343  0.2075150639425234  0.0970842691791719
  0.0940291543363145  0.2075287992137842  0.0964154558412921
  0.5857004235806073  0.7096229507924983  0.1054411660041085
  0.5857569244282531  0.9263586974550811  0.1048849654586971
  0.8029585698375274  0.7097299482413763  0.1044944777512358
  0.8028291964405102  0.9263210951599504  0.1038380780264255
  0.6947035525620762  0.8171821865321595  0.1199937696196728
  0.6177342603418060  0.0261872053703419  0.2524001924047151
  0.7974919991725179  0.6675327253993055  0.4203593110235542
  0.9396347093366373  0.8714030137320374  0.2637473306350429
  0.0300091128905430  0.7269605503147724  0.2040584586192920
  0.9595411628791913  0.0818507220507665  0.2389355534523250
  0.9953881293023656  0.6679163382315135  0.3676921372411246
  0.4843033121619986  0.1040743183898864  0.3239746221216644
  0.4210775228528259  0.9771731941448285  0.2127197526359751
  0.2254674933443330  0.6102987615935646  0.3752684786868259
  0.1295763392305115  0.0852527597430142  0.4019423161489917
  0.4801343950988234  0.9357741592669298  0.3859811299351572
  0.0434811167139838  0.3419717053999262  0.2052570510426997
  0.3459506828136912  0.8091186513541753  0.2681470392242427
  0.4394221018564766  0.0706189052645314  0.4633169275270265
  0.5241388809878373  0.3201831373008360  0.3224032004873807
  0.7491537486888631  0.2905361894241875  0.2936990228931241
  0.7259782868056828  0.4972436168695272  0.3699853848763270
  0.8559465724529864  0.5809416644262596  0.3037931735934793
  0.2817306649391152  0.8219182520046237  0.3567480434648218
  0.7236791160103504  0.8268564869469435  0.2769159132423161
  0.1944475167555584  0.0777396206802028  0.2370730187019227
  0.2624737719226010  0.2833910562664353  0.2023160268168357
  0.9391873967841318  0.3560746300429669  0.3440939416690800
  0.0389145504618355  0.5310046139526479  0.2505503258047158
  0.6151634530998570  0.1968699731183101  0.4224171218456284
  0.8691020193513490  0.1144635886838050  0.4643931760675742
  0.4640299677803426  0.6112604322380231  0.2560625418363652
  0.9739610730144979  0.4161887057672485  0.4823454960496490
  0.2152751531709091  0.4853948123251263  0.3029164829776334
  0.0420730545173038  0.8749665099121765  0.3479182450653768
  0.8194598153946745  0.0972992397119232  0.3155407444339979
  0.1917137720172235  0.8639247173456170  0.2062698638217507
  0.8663886865563262  0.9751513602140065  0.3907221433864220
  0.3086731226896428  0.3827223898295398  0.4830714905773685
  0.0318372946822126  0.1960212976140534  0.5131834112625497
  0.6845042131780545  0.8364477041310585  0.3711198564897523
  0.8272792333641978  0.3117026818622289  0.4251410062354405
  0.3917487576087045  0.4073476824091833  0.2578459753068884
  0.4293065816316989  0.4676522420067804  0.3959459963029108
  0.2441198975576964  0.1194641436758775  0.3256869673014346
  0.1482365276915526  0.4477988839256762  0.4278346048933932
  0.2425251318350466  0.1681640195271243  0.4742971176816201
  0.7608039344493998  0.1849791884624506  0.2146731790904337
  0.5242222280927357  0.6479329534155216  0.3474170487967665
  0.1488461073929349  0.3210233232173481  0.3530379984595188
  0.6937622498149950  0.8286312027689167  0.1872074097654029
  0.6700756377697749  0.0771928117831089  0.2405780808155353
  0.6598308748895304  0.9665041213529113  0.2643136006839930
  0.8704585547925516  0.6725592617984907  0.4080600241472699
  0.7584805457700660  0.7269762842413307  0.4070771302467328
  0.9443799749746320  0.9425836059720819  0.2506239129633177
  0.9811468403194417  0.8752657491920339  0.2919489606866185
  0.9869317542116737  0.7708197203968243  0.2247146421850272
  0.0399265629272884  0.6592124102860027  0.2197171235438569
  0.9112704495778043  0.1293861691672677  0.2227710038427944
  0.0340778251803130  0.1051870211513990  0.2347564485386339
  0.9553702502249541  0.6327100134953424  0.3432992380444841
  0.0667900728253587  0.6352259032934113  0.3698478755191580
  0.5301470697228283  0.0796108770075248  0.2991323972374548
  0.4964325146193544  0.1812542012457076  0.3257120189722851
  0.4926182727012196  0.9995802087159651  0.2233950628065773
  0.3708880517843907  0.0318667746706105  0.2221509274671230
  0.2310384911227024  0.5745569003424659  0.3456479602818259
  0.2514591471708362  0.6835299847846283  0.3712343611952105
  0.1677399897010289  0.1173347951154487  0.4276969333919978
  0.1048414111539849  0.0166273829152024  0.4118226037658272
  0.4798229655445873  0.9956082905757435  0.3649023553801987
  0.4160497940313203  0.8939439758137907  0.3784224504583017
  0.0146288452074555  0.3567148867137415  0.1758036596857035
  0.0359644000997230  0.4096353155678781  0.2217454022708137
  0.2812541705810631  0.8172947720285181  0.2491900605479408
  0.3916748676829222  0.8648158589300107  0.2552456150935034
  0.4937523203763172  0.1231801852146837  0.4554117908934487
  0.4474650042958242  0.0168415830723327  0.4399160974279415
  0.5039605233252203  0.3628766041997897  0.3483355581227489
  0.4792168779247257  0.3486372039913777  0.2977090909498475
  0.6772349494521701  0.3112932726673479  0.3041682525286390
  0.7653355319116635  0.2205617858029387  0.3073354552501255
  0.7501717030577120  0.4317247154094915  0.3835841541746775
  0.7470160446585251  0.5530997780767288  0.3915053944794846
  0.8093489628748722  0.5391670644526984  0.3243672329643725
  0.8094441868764858  0.6351228838708972  0.2911652852258694
  0.2115526170579787  0.8570298437455482  0.3558481906691021
  0.3055098885819444  0.8186144110290821  0.3250115048475332
  0.8006852212832530  0.8457458707609665  0.2737391721895557
  0.7034397410934718  0.8072525809895266  0.2455134459104005
  0.2061422649376916  0.0811970190676549  0.2697934155306025
  0.1880031475985535  0.0029148070336549  0.2288630922967581
  0.1878584055004485  0.3103926731564173  0.2027030635138002
  0.2533263631998082  0.2110725081372986  0.2131055619345095
  0.8843868602460834  0.3427138561629606  0.3212591162313814
  0.9040283466033018  0.3347249456344716  0.3721434432781425
  0.1023429198517957  0.5188575855290053  0.2701990454538764
  0.9756140870678928  0.5372955887087132  0.2701699203862531
  0.6707720147907955  0.2510275233796697  0.4245941908533058
  0.6161815248225968  0.1739648234270631  0.3914461795316934
  0.9325765310130724  0.1362329464883041  0.4830458177497531
  0.8099011491480105  0.1040515152689633  0.4850999152597283
  0.4948669625708231  0.6169343953605656  0.2863035516593460
  0.4183338460724697  0.6742300894667362  0.2545797877621758
  0.9516421229653236  0.4798773153643186  0.4977115588654467
  0.0331359631061100  0.4373818012992321  0.4618189122138146
  0.2809788430767000  0.4625814152719361  0.2866123601605037
  0.1929354151554656  0.4210850625975988  0.3197871672917058
  0.9868238761552723  0.9148732571202407  0.3644579617423100
  0.0253772001431520  0.8003872306944357  0.3552919863845063
  0.8404593389908865  0.0611857132764397  0.3433514844639950
  0.8807199888385332  0.0911720636528195  0.2950905360705117
  0.1334467397618520  0.8091218795019348  0.2028634476332707
  0.2363491673883742  0.8606612299429361  0.1797133651248720
  0.8667182428781244  0.0163005192944993  0.4186377527782619
  0.8019377235322085  0.9300625607569900  0.3904727490951437
  0.2982557501074458  0.4058170791068919  0.5136811247599758
  0.2480531766005177  0.4134240235024131  0.4656237693836739
  0.0228166567110025  0.2716344248539306  0.5080287213527547
  0.1057888594926066  0.1793412002259823  0.5037817394914533
  0.6918681108244490  0.8351806150898496  0.3382850456470927
  0.6137600111138904  0.8691135990409884  0.3773064072873721
  0.8672564973717316  0.3566347587156795  0.4463176867542943
  0.8434464654769868  0.2393828807250561  0.4355464611030153
  0.4181735946108428  0.4771904773813365  0.2476958727047483
  0.3540643317653849  0.3682183864913762  0.2338303462925336
  0.3681676127119457  0.5147721039314734  0.3909649821573764
  0.4195006461918042  0.4418855490437817  0.4263656757837966
  0.2106384888185298  0.0896773755662883  0.3530367369232661
  0.3221085038196881  0.1088967891617492  0.3278561869497758
  0.1505149194290098  0.3946194042549557  0.4033935081397300
  0.1707087907185332  0.5142124447310170  0.4133768074117437
  0.3105429418082078  0.1268589182618758  0.4724786721956451
  0.2673308167803991  0.2417764472703456  0.4763718911392429
  0.7538169826741762  0.2372508090256109  0.2394416112338772
  0.7382794755632477  0.2204775765878543  0.1875316266515089
  0.5308193769402293  0.5851520852402087  0.3660858632227120
  0.5860955393254638  0.6913847820732659  0.3550870418186397
  0.0703409541814124  0.3172020818833160  0.3460542892372253
  0.1822326317574073  0.2534188453020060  0.3450248857871203
  0.6702017654210526  0.9005963667894072  0.1926300656622809
 
  0.00000000E+00  0.00000000E+00  0.00000000E+00
  0.00000000E+00  0.00000000E+00  0.00000000E+00
  0.00000000E+00  0.00000000E+00  0.00000000E+00
  0.00000000E+00  0.00000000E+00  0.00000000E+00
  0.00000000E+00  0.00000000E+00  0.00000000E+00
  0.00000000E+00  0.00000000E+00  0.00000000E+00
  0.00000000E+00  0.00000000E+00  0.00000000E+00
  0.00000000E+00  0.00000000E+00  0.00000000E+00
  0.00000000E+00  0.00000000E+00  0.00000000E+00
  0.00000000E+00  0.00000000E+00  0.00000000E+00
  0.00000000E+00  0.00000000E+00  0.00000000E+00
  0.00000000E+00  0.00000000E+00  0.00000000E+00
  0.00000000E+00  0.00000000E+00  0.00000000E+00
  0.00000000E+00  0.00000000E+00  0.00000000E+00
  0.00000000E+00  0.00000000E+00  0.00000000E+00
  0.00000000E+00  0.00000000E+00  0.00000000E+00
  0.00000000E+00  0.00000000E+00  0.00000000E+00
  0.00000000E+00  0.00000000E+00  0.00000000E+00
  0.00000000E+00  0.00000000E+00  0.00000000E+00
  0.00000000E+00  0.00000000E+00  0.00000000E+00
  0.00000000E+00  0.00000000E+00  0.00000000E+00
  0.00000000E+00  0.00000000E+00  0.00000000E+00
  0.00000000E+00  0.00000000E+00  0.00000000E+00
  0.00000000E+00  0.00000000E+00  0.00000000E+00
  0.00000000E+00  0.00000000E+00  0.00000000E+00
  0.00000000E+00  0.00000000E+00  0.00000000E+00
  0.00000000E+00  0.00000000E+00  0.00000000E+00
  0.00000000E+00  0.00000000E+00  0.00000000E+00
  0.00000000E+00  0.00000000E+00  0.00000000E+00
  0.00000000E+00  0.00000000E+00  0.00000000E+00
  0.00000000E+00  0.00000000E+00  0.00000000E+00
  0.00000000E+00  0.00000000E+00  0.00000000E+00
  0.00000000E+00  0.00000000E+00  0.00000000E+00
  0.00000000E+00  0.00000000E+00  0.00000000E+00
  0.00000000E+00  0.00000000E+00  0.00000000E+00
  0.00000000E+00  0.00000000E+00  0.00000000E+00
  0.00000000E+00  0.00000000E+00  0.00000000E+00
  0.00000000E+00  0.00000000E+00  0.00000000E+00
  0.00000000E+00  0.00000000E+00  0.00000000E+00
  0.00000000E+00  0.00000000E+00  0.00000000E+00
  0.00000000E+00  0.00000000E+00  0.00000000E+00
  0.00000000E+00  0.00000000E+00  0.00000000E+00
  0.00000000E+00  0.00000000E+00  0.00000000E+00
  0.00000000E+00  0.00000000E+00  0.00000000E+00
  0.00000000E+00  0.00000000E+00  0.00000000E+00
  0.00000000E+00  0.00000000E+00  0.00000000E+00
  0.00000000E+00  0.00000000E+00  0.00000000E+00
  0.00000000E+00  0.00000000E+00  0.00000000E+00
  0.00000000E+00  0.00000000E+00  0.00000000E+00
  0.00000000E+00  0.00000000E+00  0.00000000E+00
  0.00000000E+00  0.00000000E+00  0.00000000E+00
  0.00000000E+00  0.00000000E+00  0.00000000E+00
  0.00000000E+00  0.00000000E+00  0.00000000E+00
  0.00000000E+00  0.00000000E+00  0.00000000E+00
  0.00000000E+00  0.00000000E+00  0.00000000E+00
  0.00000000E+00  0.00000000E+00  0.00000000E+00
  0.00000000E+00  0.00000000E+00  0.00000000E+00
  0.00000000E+00  0.00000000E+00  0.00000000E+00
  0.00000000E+00  0.00000000E+00  0.00000000E+00
  0.00000000E+00  0.00000000E+00  0.00000000E+00
  0.00000000E+00  0.00000000E+00  0.00000000E+00
  0.00000000E+00  0.00000000E+00  0.00000000E+00
  0.00000000E+00  0.00000000E+00  0.00000000E+00
  0.00000000E+00  0.00000000E+00  0.00000000E+00
  0.00000000E+00  0.00000000E+00  0.00000000E+00
  0.00000000E+00  0.00000000E+00  0.00000000E+00
  0.00000000E+00  0.00000000E+00  0.00000000E+00
  0.00000000E+00  0.00000000E+00  0.00000000E+00
  0.00000000E+00  0.00000000E+00  0.00000000E+00
  0.00000000E+00  0.00000000E+00  0.00000000E+00
  0.00000000E+00  0.00000000E+00  0.00000000E+00
  0.00000000E+00  0.00000000E+00  0.00000000E+00
  0.00000000E+00  0.00000000E+00  0.00000000E+00
  0.00000000E+00  0.00000000E+00  0.00000000E+00
  0.00000000E+00  0.00000000E+00  0.00000000E+00
  0.00000000E+00  0.00000000E+00  0.00000000E+00
  0.00000000E+00  0.00000000E+00  0.00000000E+00
  0.00000000E+00  0.00000000E+00  0.00000000E+00
  0.00000000E+00  0.00000000E+00  0.00000000E+00
  0.00000000E+00  0.00000000E+00  0.00000000E+00
  0.00000000E+00  0.00000000E+00  0.00000000E+00
  0.00000000E+00  0.00000000E+00  0.00000000E+00
  0.00000000E+00  0.00000000E+00  0.00000000E+00
  0.00000000E+00  0.00000000E+00  0.00000000E+00
  0.00000000E+00  0.00000000E+00  0.00000000E+00
  0.00000000E+00  0.00000000E+00  0.00000000E+00
  0.00000000E+00  0.00000000E+00  0.00000000E+00
  0.00000000E+00  0.00000000E+00  0.00000000E+00
  0.00000000E+00  0.00000000E+00  0.00000000E+00
  0.00000000E+00  0.00000000E+00  0.00000000E+00
  0.00000000E+00  0.00000000E+00  0.00000000E+00
  0.00000000E+00  0.00000000E+00  0.00000000E+00
  0.00000000E+00  0.00000000E+00  0.00000000E+00
  0.00000000E+00  0.00000000E+00  0.00000000E+00
  0.00000000E+00  0.00000000E+00  0.00000000E+00
  0.00000000E+00  0.00000000E+00  0.00000000E+00
  0.00000000E+00  0.00000000E+00  0.00000000E+00
  0.00000000E+00  0.00000000E+00  0.00000000E+00
  0.00000000E+00  0.00000000E+00  0.00000000E+00
  0.00000000E+00  0.00000000E+00  0.00000000E+00
  0.00000000E+00  0.00000000E+00  0.00000000E+00
  0.00000000E+00  0.00000000E+00  0.00000000E+00
  0.00000000E+00  0.00000000E+00  0.00000000E+00
  0.00000000E+00  0.00000000E+00  0.00000000E+00
  0.00000000E+00  0.00000000E+00  0.00000000E+00
  0.00000000E+00  0.00000000E+00  0.00000000E+00
  0.00000000E+00  0.00000000E+00  0.00000000E+00
  0.00000000E+00  0.00000000E+00  0.00000000E+00
  0.00000000E+00  0.00000000E+00  0.00000000E+00
  0.00000000E+00  0.00000000E+00  0.00000000E+00
  0.00000000E+00  0.00000000E+00  0.00000000E+00
  0.00000000E+00  0.00000000E+00  0.00000000E+00
  0.00000000E+00  0.00000000E+00  0.00000000E+00
  0.00000000E+00  0.00000000E+00  0.00000000E+00
  0.00000000E+00  0.00000000E+00  0.00000000E+00
  0.00000000E+00  0.00000000E+00  0.00000000E+00
  0.00000000E+00  0.00000000E+00  0.00000000E+00
  0.00000000E+00  0.00000000E+00  0.00000000E+00
  0.00000000E+00  0.00000000E+00  0.00000000E+00
  0.00000000E+00  0.00000000E+00  0.00000000E+00
  0.00000000E+00  0.00000000E+00  0.00000000E+00
  0.00000000E+00  0.00000000E+00  0.00000000E+00
  0.00000000E+00  0.00000000E+00  0.00000000E+00
  0.00000000E+00  0.00000000E+00  0.00000000E+00
  0.00000000E+00  0.00000000E+00  0.00000000E+00
  0.00000000E+00  0.00000000E+00  0.00000000E+00
  0.00000000E+00  0.00000000E+00  0.00000000E+00
  0.00000000E+00  0.00000000E+00  0.00000000E+00
  0.00000000E+00  0.00000000E+00  0.00000000E+00
  0.00000000E+00  0.00000000E+00  0.00000000E+00
  0.00000000E+00  0.00000000E+00  0.00000000E+00
  0.00000000E+00  0.00000000E+00  0.00000000E+00
  0.00000000E+00  0.00000000E+00  0.00000000E+00
  0.00000000E+00  0.00000000E+00  0.00000000E+00
  0.00000000E+00  0.00000000E+00  0.00000000E+00
  0.00000000E+00  0.00000000E+00  0.00000000E+00
  0.00000000E+00  0.00000000E+00  0.00000000E+00
  0.00000000E+00  0.00000000E+00  0.00000000E+00
  0.00000000E+00  0.00000000E+00  0.00000000E+00
  0.00000000E+00  0.00000000E+00  0.00000000E+00
  0.00000000E+00  0.00000000E+00  0.00000000E+00
  0.00000000E+00  0.00000000E+00  0.00000000E+00
  0.00000000E+00  0.00000000E+00  0.00000000E+00
  0.00000000E+00  0.00000000E+00  0.00000000E+00
  0.00000000E+00  0.00000000E+00  0.00000000E+00
  0.00000000E+00  0.00000000E+00  0.00000000E+00
  0.00000000E+00  0.00000000E+00  0.00000000E+00
  0.00000000E+00  0.00000000E+00  0.00000000E+00
  0.00000000E+00  0.00000000E+00  0.00000000E+00
  0.00000000E+00  0.00000000E+00  0.00000000E+00
  0.00000000E+00  0.00000000E+00  0.00000000E+00
  0.00000000E+00  0.00000000E+00  0.00000000E+00
  0.00000000E+00  0.00000000E+00  0.00000000E+00
  0.00000000E+00  0.00000000E+00  0.00000000E+00
  0.00000000E+00  0.00000000E+00  0.00000000E+00
  0.00000000E+00  0.00000000E+00  0.00000000E+00
  0.00000000E+00  0.00000000E+00  0.00000000E+00
  0.00000000E+00  0.00000000E+00  0.00000000E+00
  0.00000000E+00  0.00000000E+00  0.00000000E+00
  0.00000000E+00  0.00000000E+00  0.00000000E+00
  0.00000000E+00  0.00000000E+00  0.00000000E+00
  0.00000000E+00  0.00000000E+00  0.00000000E+00
  0.00000000E+00  0.00000000E+00  0.00000000E+00
  0.00000000E+00  0.00000000E+00  0.00000000E+00
  0.00000000E+00  0.00000000E+00  0.00000000E+00
  0.00000000E+00  0.00000000E+00  0.00000000E+00
  0.00000000E+00  0.00000000E+00  0.00000000E+00
  0.00000000E+00  0.00000000E+00  0.00000000E+00
  0.00000000E+00  0.00000000E+00  0.00000000E+00
  0.00000000E+00  0.00000000E+00  0.00000000E+00
  0.00000000E+00  0.00000000E+00  0.00000000E+00
  0.00000000E+00  0.00000000E+00  0.00000000E+00
  0.00000000E+00  0.00000000E+00  0.00000000E+00
  0.00000000E+00  0.00000000E+00  0.00000000E+00
  0.00000000E+00  0.00000000E+00  0.00000000E+00
  0.00000000E+00  0.00000000E+00  0.00000000E+00
  0.00000000E+00  0.00000000E+00  0.00000000E+00
  0.00000000E+00  0.00000000E+00  0.00000000E+00
  0.00000000E+00  0.00000000E+00  0.00000000E+00
  0.00000000E+00  0.00000000E+00  0.00000000E+00
  0.00000000E+00  0.00000000E+00  0.00000000E+00
  0.00000000E+00  0.00000000E+00  0.00000000E+00
  0.00000000E+00  0.00000000E+00  0.00000000E+00
  0.00000000E+00  0.00000000E+00  0.00000000E+00
  0.00000000E+00  0.00000000E+00  0.00000000E+00
  0.00000000E+00  0.00000000E+00  0.00000000E+00
  0.00000000E+00  0.00000000E+00  0.00000000E+00
  0.00000000E+00  0.00000000E+00  0.00000000E+00
  0.00000000E+00  0.00000000E+00  0.00000000E+00
  0.00000000E+00  0.00000000E+00  0.00000000E+00
  0.00000000E+00  0.00000000E+00  0.00000000E+00
  0.00000000E+00  0.00000000E+00  0.00000000E+00
  0.00000000E+00  0.00000000E+00  0.00000000E+00
  0.00000000E+00  0.00000000E+00  0.00000000E+00
  0.00000000E+00  0.00000000E+00  0.00000000E+00
  0.00000000E+00  0.00000000E+00  0.00000000E+00
