 C  N Cr  O  H                          
   1.00000000000000     
    12.4758271999999995    0.0000000000000000    0.0000000000000000
     0.0000000000000000   12.7377722999999996    0.0000000000000000
     0.0000000000000000    0.0000000000000000   30.0000000000000000
   C    N    Cr   O    H 
    54     4     1    46    92
Direct
  0.0786405079136644  0.0091258820323341  0.0795036164365749
  0.1789560213225346  0.0640330479668579  0.0781431037071371
  0.1785593255571944  0.1752288791635004  0.0767613245763742
  0.0786952167971053  0.2305023200051757  0.0768521681323689
  0.2798459111823834  0.0094881964084921  0.0781794330804907
  0.3797691445148889  0.0655622762660465  0.0767925638801164
  0.3786963895144119  0.1776834927202990  0.0758193468002392
  0.2774946116949024  0.2309437465081615  0.0758695479679111
  0.4802715594176261  0.0099914571548765  0.0771007470159416
  0.5787259738990078  0.0688472352371539  0.0766468798594126
  0.5787046534274755  0.1828336390119747  0.0764705433482828
  0.4764572235995064  0.2375736120078059  0.0764249914121751
  0.6772172282881915  0.0100519795180609  0.0771393680993581
  0.7776602446685879  0.0654785110379537  0.0767994283373856
  0.7786977143964192  0.1774217472067754  0.0756197285932347
  0.6809625432720470  0.2373733769929851  0.0760021929437043
  0.8774648743754286  0.0095758038923216  0.0784943650378153
  0.9783284671804918  0.0640352809908751  0.0783095491340991
  0.9788245389687041  0.1752124374935659  0.0768541821210031
  0.8798615784327901  0.2308295778762046  0.0758667482635234
  0.0787799363235567  0.3417523565052387  0.0770191751308579
  0.1768327107783668  0.3981555349342523  0.0770244607259992
  0.1768426058221663  0.5093972392931306  0.0786894752425468
  0.0788012715713166  0.5657749498379289  0.0803593027842389
  0.2756644243776490  0.3425720783777320  0.0760137440614034
  0.3728871502065896  0.3978631571202872  0.0768036904448735
  0.3729330115452681  0.5096010851196912  0.0779198419686685
  0.2756431552921775  0.5649879877056524  0.0787471681535225
  0.7843644000746044  0.3978204827151327  0.0767230065872934
  0.7844246083102818  0.5096844409464051  0.0782632903138843
  0.8817252514131050  0.3424374275472416  0.0762450426106740
  0.9806145916707303  0.3980567881744910  0.0774822207145411
  0.9806653949974609  0.5094294571092761  0.0792892344370268
  0.8817823606618846  0.5650631301079532  0.0795153184603335
  0.0787641182727390  0.6769142535725690  0.0819960674639000
  0.1785935315339544  0.7321785694773996  0.0815900016081227
  0.0787321584382095  0.8983749502428142  0.0813710923609284
  0.2775469997851517  0.6765561806038681  0.0800159194272919
  0.3787048496737054  0.7298496176969079  0.0790922114792118
  0.3797718131110786  0.8418229760042916  0.0789102081289911
  0.2799244943314124  0.8977711408005639  0.0796406393460159
  0.4764188203729146  0.6698990522550008  0.0791021028314679
  0.5786120580912998  0.7246097045276809  0.0793312769362937
  0.5786759191199319  0.8385224922288571  0.0785282353470914
  0.4801608520662178  0.8973256133338192  0.0780436642566974
  0.6809155887002887  0.6700640284072552  0.0793902565065028
  0.7787279203876237  0.7299805048188841  0.0798915847402547
  0.7776342754045759  0.8420115126019112  0.0796264603927725
  0.6771461967140338  0.8974110548123920  0.0783201129910683
  0.8799621594747575  0.6766106582788005  0.0809266343115317
  0.9789204824862833  0.7321820055952579  0.0821852128241703
  0.8775290774426703  0.8979600791736098  0.0802697765228981
  0.1790949707370356  0.8433951607727400  0.0813510355124542
  0.9783488825227341  0.8434727094954139  0.0818384332065636
  0.4711671531166808  0.3460706894507649  0.0779984453003478
  0.4711185298636286  0.5613311216107043  0.0795734144337196
  0.6862956884329242  0.3458525300747393  0.0769317539234167
  0.6862912677198577  0.5615904918485585  0.0794621457471107
  0.5790631804144446  0.4534643783876792  0.0857891279376665
  0.5903294936926912  0.4510508013117794  0.1534941520614702
  0.8762654553636742  0.8072144383520212  0.2533174550537505
  0.8409706160442127  0.7965205353046559  0.4065330193452147
  0.4729263034382523  0.3134864392615375  0.2024885820936063
  0.1598276738037451  0.2327690652671535  0.2013551104849918
  0.9898328202854574  0.4974578707476279  0.2643250310078047
  0.8315819695415851  0.9157942535787750  0.5081830403556660
  0.5356396890967827  0.6123566592913180  0.2054835032395926
  0.5048050034710975  0.4515227990796517  0.2748230658565693
  0.3761118254228516  0.3313358097309894  0.3933316662841924
  0.2778331451929042  0.1633161002987532  0.5064938645434588
  0.6539335107080891  0.1617492320088552  0.3023007067782224
  0.3098546698525534  0.0632989325486234  0.1898454011364703
  0.3316385885733062  0.5464124641283884  0.3179060036292538
  0.0610567542977288  0.2981617484545879  0.4503398953742569
  0.6576135291184996  0.2833513299057482  0.4172921510700627
  0.7379586313711692  0.7336176479417066  0.3238388706947205
  0.8734325050313779  0.5833875605848572  0.4197889878934946
  0.1745508352245157  0.9168442878987413  0.3112010697954198
  0.6474291869966354  0.0918426112559046  0.5179306382832093
  0.8705030413112137  0.4510980080250812  0.1864961363964548
  0.1826830281505594  0.8999773932435964  0.2168649033118125
  0.0977808352625343  0.5313375738204837  0.4236035387660548
  0.7041633506002620  0.7608931550118919  0.1935818664565612
  0.9030251866992882  0.1734257290309678  0.4020921910158061
  0.6591966385289014  0.7836923087968469  0.4661199160310967
  0.7296862219234157  0.3596262804810743  0.5004676171264431
  0.4881398016968106  0.0653810716256084  0.2485461494306839
  0.2976604598655766  0.0833419081651671  0.3554613339239426
  0.8252838146660072  0.5273091531211885  0.3313496062864547
  0.6608936292354120  0.3697678399106493  0.3337386276027907
  0.5378432886571151  0.8429540058451505  0.3158141374443594
  0.8947783238245886  0.1701780809608524  0.3097545773016656
  0.4483776919662299  0.8181894443445040  0.4310008582170895
  0.1903389264166495  0.5966496374607171  0.2454260569059117
  0.4804572094232874  0.2285856129148125  0.4775901620427839
  0.0639997969859479  0.2963504620740686  0.2819665106172926
  0.2072642201749151  0.7355029461555109  0.4314032301990219
  0.5286806100735203  0.0391155914469076  0.3628401683208573
  0.3101555015397299  0.7564887029389040  0.3483233782482298
  0.1816147925270929  0.4038547037597836  0.3526801305347440
  0.1456831196062034  0.1024773263816738  0.4300589524330094
  0.7193292109134125  0.5857776893644031  0.4963228760673363
  0.9523395134550312  0.9626317918677985  0.3221601590691272
  0.7263621310891911  0.0467401016213626  0.4340244133988219
  0.0253040395131059  0.9043303561823584  0.4466160275360099
  0.5671567420739071  0.5174099446611381  0.1695456176865617
  0.5478881997575547  0.3934918581531520  0.1679320742688335
  0.9021154155345871  0.8718813535234514  0.2673214594647688
  0.8323613124688680  0.7756618497615665  0.2771313435933892
  0.8602334339305644  0.7215752871725755  0.4117768115750993
  0.9038016304786910  0.8368929235943970  0.4165929515760560
  0.4912256769995971  0.2407165253006048  0.2088993749096509
  0.4773231400245544  0.3518995879673790  0.2311641407677372
  0.2159520973216750  0.1792809887597820  0.1965492669740589
  0.1208171520505500  0.2364163948470297  0.1733089438604531
  0.0546362318531397  0.5391067112403227  0.2571812836606838
  0.9487264843933989  0.4921475892701831  0.2362045003435520
  0.8007243840545679  0.9752147849802967  0.5242846428440187
  0.7700479996500342  0.8702902432636569  0.5016460742624728
  0.5378695307260293  0.5733435075629292  0.2337463649894700
  0.5936119264938691  0.6652885434539405  0.2063009588780625
  0.4441166345435443  0.4826358721347533  0.2913873189882983
  0.5557495451863110  0.4260841853952704  0.2975996379091836
  0.4078861485484412  0.3036721651169808  0.4207611657994794
  0.4206877153223291  0.3909988475108338  0.3850509128817301
  0.2344099804282662  0.2235075336204353  0.5151409221258189
  0.2364965166569608  0.1305283917078754  0.4821851095717781
  0.6043481588458220  0.1489973454349699  0.2774289743196310
  0.6506794410452825  0.2376866483435833  0.3093592779914842
  0.2616660090404768  0.0028197756661394  0.1968934854321296
  0.3294106587036731  0.0548005671141750  0.1585315380130736
  0.3237720593621099  0.6183569446626075  0.3300133620698851
  0.2747056971097538  0.5021107745158461  0.3310846628004437
  0.9913183648224873  0.2855688337289422  0.4361391851187351
  0.0794269849286418  0.3713936123074049  0.4435996300481240
  0.6923914667746333  0.3136663991915433  0.4439993144909813
  0.5880645572665504  0.2600709557786884  0.4287006947032148
  0.7687069557932282  0.7666974539937446  0.3504991913505133
  0.6663918380391090  0.7659056677469339  0.3198305861036889
  0.8222780328967179  0.5638680356039224  0.4432962651397200
  0.8498959638257990  0.5520037648036814  0.3910784178658028
  0.2144913918550014  0.9764583459821944  0.3238998228242800
  0.0984702173652488  0.9291488767933385  0.3187428005415454
  0.6013965408569080  0.0324475661564633  0.5251295194446267
  0.6733542789511869  0.0775655225261435  0.4869886269436250
  0.9054217214058898  0.4562320540616585  0.1574742919462736
  0.7950921066595321  0.4651533230778955  0.1802319018085445
  0.1753487295119030  0.9037982201032825  0.2496745103477037
  0.1115718746491691  0.8839217287033443  0.2054442463230131
  0.0205096159638388  0.5477757086031365  0.4224987828895756
  0.1152617712874309  0.4984018183073595  0.3947761593209150
  0.7673227584311165  0.7851720560360350  0.2105028004238675
  0.7232454728602983  0.7678076263829371  0.1622572516871043
  0.9647756262854530  0.1264183974675904  0.4037569349249349
  0.8933787942209690  0.1840743103616850  0.3694964384654841
  0.7090874598296687  0.7934597345129146  0.4409447864451948
  0.5860238643609595  0.7958666218317421  0.4543727959910929
  0.7039526783111649  0.4323397040844318  0.5022468093377499
  0.6830771713623500  0.3186034010998231  0.5198413070046815
  0.4271235778146393  0.0612336253616495  0.2274768052645935
  0.5112725016380990  0.9928789573862397  0.2527571764712073
  0.3741143610730104  0.0668781819008707  0.3608987958532028
  0.3002442085624440  0.1479870207761787  0.3381251666893842
  0.8859902952572387  0.5217520915482573  0.3101730304412155
  0.7886015634409590  0.5938721440673700  0.3239254811459565
  0.6591162305912319  0.3465443701965423  0.3654683801655953
  0.7227884938300381  0.4177208738118262  0.3310163794244603
  0.4680390399749228  0.8092327150811210  0.3195274308817551
  0.5333327784753622  0.9094780126847691  0.3327187771333173
  0.9479302416172538  0.2174835853457993  0.2950632494661217
  0.8239248633818554  0.1779202453772052  0.2960000069838889
  0.4394093507438710  0.8123339710526889  0.3987310252618977
  0.3815040741938897  0.7889170221260881  0.4426590087832536
  0.2232879890172545  0.6205582343576684  0.2178572126242553
  0.2499951605405524  0.5770138654566723  0.2652708283192666
  0.5329841477020953  0.1847780783106746  0.4934271995602368
  0.4095765807533129  0.2034779138963612  0.4880523245149760
  0.0367021289771358  0.3673069307591501  0.2735393865317610
  0.1002571365652527  0.2703832446250402  0.2545953659694737
  0.1508134520302335  0.7869522191922620  0.4378034576089856
  0.1709233910813078  0.6664457412842990  0.4308619452830936
  0.5715216737464471  0.0861395626113866  0.3432310264287370
  0.5700744344856389  0.0357534365484970  0.3904931392586292
  0.2614380853796696  0.8011229667958779  0.3305627435045583
  0.2717658162863690  0.7502877780453487  0.3772218882033925
  0.2340396664595503  0.3612864883189505  0.3691723967605698
  0.1483328576698724  0.3588384337132945  0.3296374218091409
  0.1977193442245251  0.0994182764661557  0.4053409174123122
  0.1242330380067862  0.1774046545798780  0.4333094459022661
  0.6859007302676086  0.6526430250274011  0.4861238849456595
  0.7554551549272150  0.6041206921362802  0.5239929338785467
  0.9051651772497729  0.9353851662010958  0.3452647439392523
  0.9300681603018501  0.0366989558488344  0.3168901000710783
  0.7768112132961325  0.9929058304834283  0.4440491843954166
  0.7727275762426931  0.1039932810892994  0.4228404399523626
  0.9847063408594465  0.9133193851253139  0.4743124987182723
  0.0627140718988367  0.9714532058661157  0.4416072878077928
 
  0.00000000E+00  0.00000000E+00  0.00000000E+00
  0.00000000E+00  0.00000000E+00  0.00000000E+00
  0.00000000E+00  0.00000000E+00  0.00000000E+00
  0.00000000E+00  0.00000000E+00  0.00000000E+00
  0.00000000E+00  0.00000000E+00  0.00000000E+00
  0.00000000E+00  0.00000000E+00  0.00000000E+00
  0.00000000E+00  0.00000000E+00  0.00000000E+00
  0.00000000E+00  0.00000000E+00  0.00000000E+00
  0.00000000E+00  0.00000000E+00  0.00000000E+00
  0.00000000E+00  0.00000000E+00  0.00000000E+00
  0.00000000E+00  0.00000000E+00  0.00000000E+00
  0.00000000E+00  0.00000000E+00  0.00000000E+00
  0.00000000E+00  0.00000000E+00  0.00000000E+00
  0.00000000E+00  0.00000000E+00  0.00000000E+00
  0.00000000E+00  0.00000000E+00  0.00000000E+00
  0.00000000E+00  0.00000000E+00  0.00000000E+00
  0.00000000E+00  0.00000000E+00  0.00000000E+00
  0.00000000E+00  0.00000000E+00  0.00000000E+00
  0.00000000E+00  0.00000000E+00  0.00000000E+00
  0.00000000E+00  0.00000000E+00  0.00000000E+00
  0.00000000E+00  0.00000000E+00  0.00000000E+00
  0.00000000E+00  0.00000000E+00  0.00000000E+00
  0.00000000E+00  0.00000000E+00  0.00000000E+00
  0.00000000E+00  0.00000000E+00  0.00000000E+00
  0.00000000E+00  0.00000000E+00  0.00000000E+00
  0.00000000E+00  0.00000000E+00  0.00000000E+00
  0.00000000E+00  0.00000000E+00  0.00000000E+00
  0.00000000E+00  0.00000000E+00  0.00000000E+00
  0.00000000E+00  0.00000000E+00  0.00000000E+00
  0.00000000E+00  0.00000000E+00  0.00000000E+00
  0.00000000E+00  0.00000000E+00  0.00000000E+00
  0.00000000E+00  0.00000000E+00  0.00000000E+00
  0.00000000E+00  0.00000000E+00  0.00000000E+00
  0.00000000E+00  0.00000000E+00  0.00000000E+00
  0.00000000E+00  0.00000000E+00  0.00000000E+00
  0.00000000E+00  0.00000000E+00  0.00000000E+00
  0.00000000E+00  0.00000000E+00  0.00000000E+00
  0.00000000E+00  0.00000000E+00  0.00000000E+00
  0.00000000E+00  0.00000000E+00  0.00000000E+00
  0.00000000E+00  0.00000000E+00  0.00000000E+00
  0.00000000E+00  0.00000000E+00  0.00000000E+00
  0.00000000E+00  0.00000000E+00  0.00000000E+00
  0.00000000E+00  0.00000000E+00  0.00000000E+00
  0.00000000E+00  0.00000000E+00  0.00000000E+00
  0.00000000E+00  0.00000000E+00  0.00000000E+00
  0.00000000E+00  0.00000000E+00  0.00000000E+00
  0.00000000E+00  0.00000000E+00  0.00000000E+00
  0.00000000E+00  0.00000000E+00  0.00000000E+00
  0.00000000E+00  0.00000000E+00  0.00000000E+00
  0.00000000E+00  0.00000000E+00  0.00000000E+00
  0.00000000E+00  0.00000000E+00  0.00000000E+00
  0.00000000E+00  0.00000000E+00  0.00000000E+00
  0.00000000E+00  0.00000000E+00  0.00000000E+00
  0.00000000E+00  0.00000000E+00  0.00000000E+00
  0.00000000E+00  0.00000000E+00  0.00000000E+00
  0.00000000E+00  0.00000000E+00  0.00000000E+00
  0.00000000E+00  0.00000000E+00  0.00000000E+00
  0.00000000E+00  0.00000000E+00  0.00000000E+00
  0.00000000E+00  0.00000000E+00  0.00000000E+00
  0.00000000E+00  0.00000000E+00  0.00000000E+00
  0.00000000E+00  0.00000000E+00  0.00000000E+00
  0.00000000E+00  0.00000000E+00  0.00000000E+00
  0.00000000E+00  0.00000000E+00  0.00000000E+00
  0.00000000E+00  0.00000000E+00  0.00000000E+00
  0.00000000E+00  0.00000000E+00  0.00000000E+00
  0.00000000E+00  0.00000000E+00  0.00000000E+00
  0.00000000E+00  0.00000000E+00  0.00000000E+00
  0.00000000E+00  0.00000000E+00  0.00000000E+00
  0.00000000E+00  0.00000000E+00  0.00000000E+00
  0.00000000E+00  0.00000000E+00  0.00000000E+00
  0.00000000E+00  0.00000000E+00  0.00000000E+00
  0.00000000E+00  0.00000000E+00  0.00000000E+00
  0.00000000E+00  0.00000000E+00  0.00000000E+00
  0.00000000E+00  0.00000000E+00  0.00000000E+00
  0.00000000E+00  0.00000000E+00  0.00000000E+00
  0.00000000E+00  0.00000000E+00  0.00000000E+00
  0.00000000E+00  0.00000000E+00  0.00000000E+00
  0.00000000E+00  0.00000000E+00  0.00000000E+00
  0.00000000E+00  0.00000000E+00  0.00000000E+00
  0.00000000E+00  0.00000000E+00  0.00000000E+00
  0.00000000E+00  0.00000000E+00  0.00000000E+00
  0.00000000E+00  0.00000000E+00  0.00000000E+00
  0.00000000E+00  0.00000000E+00  0.00000000E+00
  0.00000000E+00  0.00000000E+00  0.00000000E+00
  0.00000000E+00  0.00000000E+00  0.00000000E+00
  0.00000000E+00  0.00000000E+00  0.00000000E+00
  0.00000000E+00  0.00000000E+00  0.00000000E+00
  0.00000000E+00  0.00000000E+00  0.00000000E+00
  0.00000000E+00  0.00000000E+00  0.00000000E+00
  0.00000000E+00  0.00000000E+00  0.00000000E+00
  0.00000000E+00  0.00000000E+00  0.00000000E+00
  0.00000000E+00  0.00000000E+00  0.00000000E+00
  0.00000000E+00  0.00000000E+00  0.00000000E+00
  0.00000000E+00  0.00000000E+00  0.00000000E+00
  0.00000000E+00  0.00000000E+00  0.00000000E+00
  0.00000000E+00  0.00000000E+00  0.00000000E+00
  0.00000000E+00  0.00000000E+00  0.00000000E+00
  0.00000000E+00  0.00000000E+00  0.00000000E+00
  0.00000000E+00  0.00000000E+00  0.00000000E+00
  0.00000000E+00  0.00000000E+00  0.00000000E+00
  0.00000000E+00  0.00000000E+00  0.00000000E+00
  0.00000000E+00  0.00000000E+00  0.00000000E+00
  0.00000000E+00  0.00000000E+00  0.00000000E+00
  0.00000000E+00  0.00000000E+00  0.00000000E+00
  0.00000000E+00  0.00000000E+00  0.00000000E+00
  0.00000000E+00  0.00000000E+00  0.00000000E+00
  0.00000000E+00  0.00000000E+00  0.00000000E+00
  0.00000000E+00  0.00000000E+00  0.00000000E+00
  0.00000000E+00  0.00000000E+00  0.00000000E+00
  0.00000000E+00  0.00000000E+00  0.00000000E+00
  0.00000000E+00  0.00000000E+00  0.00000000E+00
  0.00000000E+00  0.00000000E+00  0.00000000E+00
  0.00000000E+00  0.00000000E+00  0.00000000E+00
  0.00000000E+00  0.00000000E+00  0.00000000E+00
  0.00000000E+00  0.00000000E+00  0.00000000E+00
  0.00000000E+00  0.00000000E+00  0.00000000E+00
  0.00000000E+00  0.00000000E+00  0.00000000E+00
  0.00000000E+00  0.00000000E+00  0.00000000E+00
  0.00000000E+00  0.00000000E+00  0.00000000E+00
  0.00000000E+00  0.00000000E+00  0.00000000E+00
  0.00000000E+00  0.00000000E+00  0.00000000E+00
  0.00000000E+00  0.00000000E+00  0.00000000E+00
  0.00000000E+00  0.00000000E+00  0.00000000E+00
  0.00000000E+00  0.00000000E+00  0.00000000E+00
  0.00000000E+00  0.00000000E+00  0.00000000E+00
  0.00000000E+00  0.00000000E+00  0.00000000E+00
  0.00000000E+00  0.00000000E+00  0.00000000E+00
  0.00000000E+00  0.00000000E+00  0.00000000E+00
  0.00000000E+00  0.00000000E+00  0.00000000E+00
  0.00000000E+00  0.00000000E+00  0.00000000E+00
  0.00000000E+00  0.00000000E+00  0.00000000E+00
  0.00000000E+00  0.00000000E+00  0.00000000E+00
  0.00000000E+00  0.00000000E+00  0.00000000E+00
  0.00000000E+00  0.00000000E+00  0.00000000E+00
  0.00000000E+00  0.00000000E+00  0.00000000E+00
  0.00000000E+00  0.00000000E+00  0.00000000E+00
  0.00000000E+00  0.00000000E+00  0.00000000E+00
  0.00000000E+00  0.00000000E+00  0.00000000E+00
  0.00000000E+00  0.00000000E+00  0.00000000E+00
  0.00000000E+00  0.00000000E+00  0.00000000E+00
  0.00000000E+00  0.00000000E+00  0.00000000E+00
  0.00000000E+00  0.00000000E+00  0.00000000E+00
  0.00000000E+00  0.00000000E+00  0.00000000E+00
  0.00000000E+00  0.00000000E+00  0.00000000E+00
  0.00000000E+00  0.00000000E+00  0.00000000E+00
  0.00000000E+00  0.00000000E+00  0.00000000E+00
  0.00000000E+00  0.00000000E+00  0.00000000E+00
  0.00000000E+00  0.00000000E+00  0.00000000E+00
  0.00000000E+00  0.00000000E+00  0.00000000E+00
  0.00000000E+00  0.00000000E+00  0.00000000E+00
  0.00000000E+00  0.00000000E+00  0.00000000E+00
  0.00000000E+00  0.00000000E+00  0.00000000E+00
  0.00000000E+00  0.00000000E+00  0.00000000E+00
  0.00000000E+00  0.00000000E+00  0.00000000E+00
  0.00000000E+00  0.00000000E+00  0.00000000E+00
  0.00000000E+00  0.00000000E+00  0.00000000E+00
  0.00000000E+00  0.00000000E+00  0.00000000E+00
  0.00000000E+00  0.00000000E+00  0.00000000E+00
  0.00000000E+00  0.00000000E+00  0.00000000E+00
  0.00000000E+00  0.00000000E+00  0.00000000E+00
  0.00000000E+00  0.00000000E+00  0.00000000E+00
  0.00000000E+00  0.00000000E+00  0.00000000E+00
  0.00000000E+00  0.00000000E+00  0.00000000E+00
  0.00000000E+00  0.00000000E+00  0.00000000E+00
  0.00000000E+00  0.00000000E+00  0.00000000E+00
  0.00000000E+00  0.00000000E+00  0.00000000E+00
  0.00000000E+00  0.00000000E+00  0.00000000E+00
  0.00000000E+00  0.00000000E+00  0.00000000E+00
  0.00000000E+00  0.00000000E+00  0.00000000E+00
  0.00000000E+00  0.00000000E+00  0.00000000E+00
  0.00000000E+00  0.00000000E+00  0.00000000E+00
  0.00000000E+00  0.00000000E+00  0.00000000E+00
  0.00000000E+00  0.00000000E+00  0.00000000E+00
  0.00000000E+00  0.00000000E+00  0.00000000E+00
  0.00000000E+00  0.00000000E+00  0.00000000E+00
  0.00000000E+00  0.00000000E+00  0.00000000E+00
  0.00000000E+00  0.00000000E+00  0.00000000E+00
  0.00000000E+00  0.00000000E+00  0.00000000E+00
  0.00000000E+00  0.00000000E+00  0.00000000E+00
  0.00000000E+00  0.00000000E+00  0.00000000E+00
  0.00000000E+00  0.00000000E+00  0.00000000E+00
  0.00000000E+00  0.00000000E+00  0.00000000E+00
  0.00000000E+00  0.00000000E+00  0.00000000E+00
  0.00000000E+00  0.00000000E+00  0.00000000E+00
  0.00000000E+00  0.00000000E+00  0.00000000E+00
  0.00000000E+00  0.00000000E+00  0.00000000E+00
  0.00000000E+00  0.00000000E+00  0.00000000E+00
  0.00000000E+00  0.00000000E+00  0.00000000E+00
  0.00000000E+00  0.00000000E+00  0.00000000E+00
  0.00000000E+00  0.00000000E+00  0.00000000E+00
  0.00000000E+00  0.00000000E+00  0.00000000E+00
  0.00000000E+00  0.00000000E+00  0.00000000E+00
  0.00000000E+00  0.00000000E+00  0.00000000E+00
  0.00000000E+00  0.00000000E+00  0.00000000E+00
  0.00000000E+00  0.00000000E+00  0.00000000E+00
  0.00000000E+00  0.00000000E+00  0.00000000E+00
  0.00000000E+00  0.00000000E+00  0.00000000E+00
