 C  N Co  O  H                          
   1.00000000000000     
    12.4758271799999996    0.0000000000000000    0.0000000000000000
     0.0000000000000000   12.7377722799999997    0.0000000000000000
     0.0000000000000000    0.0000000000000000   19.8713392800000008
   C    N    Co   O    H 
    54     4     1    46    92
Direct
  0.0883619335588788  0.1303560907085160  0.1616458659587479
  0.1889821954060541  0.1854351933549793  0.1614504426779539
  0.1882988580199254  0.2967068845332081  0.1629532103847214
  0.0884095670092750  0.3518284660535904  0.1644665569549343
  0.2897434112544691  0.1308924209482926  0.1600912158157307
  0.3898364997660019  0.1874756034618408  0.1592651499810878
  0.3887718353808535  0.2996589329032046  0.1603713869883396
  0.2875417846803284  0.3524159166581394  0.1624098182079549
  0.4901509300104558  0.1314218365960271  0.1587174392836308
  0.5886007312923466  0.1907977198894535  0.1593234087491534
  0.5885447717127239  0.3049431263751212  0.1598966562575898
  0.4869542419640666  0.3607773254786323  0.1602770871183768
  0.6868787123887214  0.1314670608249995  0.1598973070879459
  0.7869874852144153  0.1874599820913901  0.1606634280183916
  0.7881084095040308  0.2996159860386325  0.1610134989356964
  0.6900703905961523  0.3608514270252438  0.1604053543632491
  0.8869822840889588  0.1310163027133794  0.1613468094673350
  0.9877396763765430  0.1855090636828242  0.1620270148800676
  0.9884674886645596  0.2966318271521952  0.1632034600583468
  0.8892676676916308  0.3523287795434695  0.1627918727698937
  0.0884179941526812  0.4630063371225395  0.1659474860952414
  0.1867531236695483  0.5193348843948489  0.1655477837992004
  0.1867646457456805  0.6306072618611187  0.1656686063280640
  0.0884022461836541  0.6868767634682634  0.1662140690076107
  0.2857858646000935  0.4638738781213886  0.1635363019746930
  0.3834989019386035  0.5191569043638679  0.1623055438454750
  0.3835229230826797  0.6307582822838222  0.1624592451216689
  0.2857996006653677  0.6860587014995109  0.1637698621212999
  0.7932587077390568  0.5190339909291434  0.1626493829049379
  0.7932745083691356  0.6307368640809304  0.1631192243909256
  0.8909510168260792  0.4637827866550801  0.1640326659642988
  0.9900311127735130  0.5192961473584642  0.1660515967374682
  0.9900511168139773  0.6305271111625296  0.1662783488631661
  0.8909678475311147  0.6860403415967211  0.1646814815775735
  0.0884149303173598  0.7980204986468559  0.1648977903019636
  0.1883141423712131  0.8531014153428929  0.1633053486716530
  0.0883852965737582  0.0194348675639519  0.1618553698013262
  0.2875583948128141  0.7974720863363181  0.1627747377356817
  0.3887383320298035  0.8502388156284618  0.1610496950059146
  0.3898984449137193  0.9623453283392480  0.1600422408945121
  0.2898038647904813  0.0188072758578849  0.1603873464649488
  0.4868460776227543  0.7891117282265065  0.1610172615558059
  0.5884151381369064  0.8449400634712445  0.1608357613297873
  0.5885078122786800  0.9590909736456519  0.1600119025234237
  0.4900711132599656  0.0182798747863464  0.1592680975906972
  0.6899587735474415  0.7891169045997064  0.1614377279054000
  0.7880428428074217  0.8503236677917844  0.1619515133321273
  0.7869384055071518  0.9625110010306760  0.1611681813061051
  0.6868245971016341  0.0184683053996922  0.1601668505113597
  0.8892222033612740  0.7975201740745298  0.1637594331407748
  0.9884478996700193  0.8532322108118745  0.1639711042733798
  0.8869580081801760  0.0189384321644344  0.1616098823261173
  0.1890123006679107  0.9643040563126460  0.1617783606883211
  0.9877185449678212  0.9643845246143589  0.1625266016005525
  0.4818600668943772  0.4687660247115015  0.1611024146146337
  0.4817686097957785  0.6811264903471788  0.1614689860424704
  0.6950265037776361  0.4687741409514646  0.1607984988587551
  0.6950232202435596  0.6811186718585658  0.1617210375456997
  0.5883566736562476  0.5750173646836764  0.1655874592289003
  0.5897556114125710  0.5764572735341019  0.2805974703262906
  0.9656506763753463  0.3300975264451781  0.3418709879154221
  0.9263764097832108  0.0956359047713321  0.4852679904084137
  0.7330701026176276  0.4241789353354090  0.3168696191802169
  0.0463354377250315  0.9383309328980007  0.4193121149689086
  0.7196919622898225  0.7142194666783759  0.3528103187850285
  0.4174070936717491  0.4060760002594317  0.7446109320658492
  0.9159073295323156  0.7593509120363033  0.7064868728002576
  0.2719883266861423  0.2353703001278455  0.3827779052260815
  0.8567156652593587  0.8034423906071577  0.5779232752520247
  0.6123448040338872  0.5864002386209417  0.4940800579818577
  0.6783482110057412  0.8911982684261771  0.4540852034216923
  0.3246320687986585  0.8053483113509128  0.3584218802170442
  0.3953311391946276  0.5659687913277616  0.4815341954522158
  0.0804195856471127  0.9138353266588579  0.6842512164293112
  0.0511873505656166  0.3747477656949973  0.6247757837074468
  0.0437481367137902  0.7464166897259528  0.4959244156112085
  0.9437626239850476  0.3176330273974717  0.5057744894765511
  0.8305361447518163  0.1297820522872222  0.3591826541899777
  0.4327895340309363  0.8738082600069512  0.5853946478456303
  0.0629463686649087  0.5338841318918598  0.4333254681330438
  0.7314698141793047  0.3937692495824552  0.5278030956940560
  0.4362325517431874  0.0666692472325232  0.5125026305387458
  0.8397434230936653  0.9035700428986104  0.3520745606007117
  0.6655843296091601  0.6715728668840683  0.7100060670763829
  0.4800400188886484  0.9545319868233880  0.3938626967785980
  0.2068768649777367  0.7987809326559200  0.5874175930983081
  0.4538735507035130  0.1362871429239771  0.3207749099148368
  0.4589038337687866  0.6273976922549459  0.7400760004491600
  0.1250838271224081  0.0817974042847827  0.3287175136265447
  0.6057092183475008  0.1090087972580189  0.6418467014888006
  0.6407091180873796  0.2384522316952553  0.3643335914900793
  0.0980787311532162  0.1526128613339245  0.6368227707873985
  0.9329135172594563  0.5208648673864524  0.6936999145069631
  0.8339128533489266  0.5500926413674786  0.4124631185813458
  0.6151670842182962  0.7530137170555871  0.5839568173441863
  0.6018766365464211  0.3058690310459288  0.7198193176453695
  0.3274074198194496  0.6192506623805127  0.6171441693303218
  0.7641380089035699  0.0082934499577480  0.5608253806950597
  0.3771864169240158  0.5855654549736847  0.3407369555363299
  0.3615340374663577  0.3523637931683753  0.5088591272651138
  0.7202927696392512  0.4686672029771168  0.6604831795007624
  0.5609536914504752  0.2489588214364374  0.4939651934639735
  0.1910416970344035  0.4273264488790950  0.3410737494074447
  0.2128540705435668  0.1181751571744853  0.4973603330677508
  0.2726933629184969  0.4066233472107066  0.6298550092931974
  0.6327094380209353  0.5128579200727575  0.2931517175596401
  0.5167965663329774  0.5686170514794620  0.2992994569424829
  0.9456522590085472  0.2558744714230799  0.3385236399680622
  0.9023041766902844  0.3659476503617100  0.3239791417626762
  0.9448512404077624  0.1683827961013294  0.4980608169292038
  0.8698295813120852  0.0720689676887652  0.5172542031113139
  0.6979071254016340  0.3595945142721704  0.3337381631779195
  0.7639442793574902  0.4602809043416208  0.3565200505613093
  0.0802644578676686  0.9792585527708955  0.3825755558624628
  0.0054129646378460  0.9916244446720560  0.4449431407772801
  0.6787443443387455  0.7426494116433708  0.3906807784090522
  0.6678797560961485  0.6733430528609767  0.3251588265353830
  0.3618539474523522  0.3967009710293207  0.7098453286034819
  0.4313532026943963  0.4823461761630204  0.7459418391864290
  0.8897749248411206  0.7726503984816339  0.6595572182575066
  0.8501527945395776  0.7554916922123945  0.7330476169269152
  0.2494055656911736  0.3056921023422303  0.3655954790554183
  0.3381116518084743  0.2127974211302802  0.3594190343983099
  0.8421718056939330  0.8793323813373992  0.5754038472910213
  0.9173078606117470  0.7877559754140896  0.5475093420250738
  0.6467597278092579  0.5234191557686411  0.5123935156026500
  0.6159453517148625  0.6414201562473887  0.5295088563733776
  0.7369015746394073  0.9042280617174421  0.4216207135033500
  0.6120160573546645  0.9124495599132370  0.4305121784172972
  0.3406699079411578  0.7308696747633666  0.3485611054547254
  0.2646649305837675  0.8032764968437951  0.3897328515287152
  0.4752830781928797  0.5704402787188805  0.4845069571597064
  0.3794475456208832  0.4904922469269897  0.4886036647774893
  0.0213930693954902  0.8677119417942409  0.6998659334303862
  0.1211688744940750  0.9311308899918258  0.7245087524690804
  1.0106006737766087  0.4282519904793639  0.6514962719339467
  0.0450042545356138  0.3065430144208709  0.6473793588000294
  0.0487643525879679  0.8048195217394556  0.4636601412527073
  0.1023698468374052  0.7610736713614952  0.5284360360197864
  0.9728686831257882  0.3492042914792221  0.4647518202671005
  0.9867429215550704  0.3451407470874355  0.5441263331627170
  0.8601210631863866  0.1185089772464198  0.4050569213162973
  0.8279578934001349  0.0586392057075661  0.3403245576394584
  0.4372299582857121  0.9422089194770216  0.5627618874686087
  0.3573557767683300  0.8521982518785749  0.5821904930818440
  0.0719622894882696  0.6025410501448268  0.4552647678499311
  0.9871641937809057  0.5352743303668273  0.4194942885208220
  0.8036041313182680  0.3639818375769691  0.5190425481025696
  0.6790195625407726  0.3368603957140311  0.5199467174112716
  0.3607577396486830  0.0900854700228539  0.5111406405789178
  0.4820216409814267  0.1298615629785871  0.5060587088296983
  0.8138015273384271  0.8349878765670019  0.3362269287121845
  0.9130553542992826  0.8940811670027442  0.3691950928131058
  0.6876184501615600  0.6016938851976347  0.6932262922434898
  0.6515963996762040  0.7110180947031510  0.6678085870538674
  0.4556504269685100  0.9863430250652383  0.4367948477764434
  0.4282333088316618  0.8976914621753577  0.3828648618162164
  0.2377605866207351  0.7330000813151234  0.6055912221320164
  0.1676340545446929  0.8334825877942379  0.6244134604515845
  0.4618806489567912  0.0652667789535145  0.3417339229159975
  0.4490478907846696  0.1244243735066648  0.2723198840654245
  0.5368188210987145  0.6462852262479279  0.7335627480864768
  0.4351749634019444  0.6665579487406467  0.7793324410709473
  0.1225173012307372  0.0789951560857029  0.2797953930510436
  0.1772779218231305  0.1366876412017665  0.3406768932142881
  0.5385406396865997  0.1033904158828997  0.6170673836214865
  0.6034545508553618  0.1785614994195586  0.6634791990108381
  0.5820304418699228  0.2023405644288300  0.3401740093970579
  0.7051168828791649  0.1919465960128758  0.3619892285000721
  0.0767400956946401  0.0803315169430910  0.6464718418133526
  0.1351550127016549  0.1491546032129442  0.5934965893398804
  0.9380950150473152  0.5976433622948972  0.6961574605544731
  0.8567387268198470  0.5051007020932213  0.6843676006833719
  0.7992469129970819  0.6143855135132197  0.3940904549268481
  0.7978972810430076  0.5382948751290597  0.4553740247347454
  0.5493180006370749  0.7973233011626585  0.5815046447560587
  0.6734682483806145  0.7932415148550731  0.5635860626684327
  0.6261410450614189  0.2819882901508798  0.7637574704348424
  0.5302627478032580  0.3408441877082391  0.7285486382040512
  0.3820047947077720  0.6319279382268672  0.6520589223353396
  0.3633936583669940  0.6133285376428262  0.5729245118739701
  0.7193168475758427  0.9772795228436182  0.5247472235867719
  0.7150434314460193  0.0477680677163181  0.5907834247757258
  0.3813491628829748  0.5751222564403576  0.3903657272796401
  0.3186527022552217  0.5395284138171118  0.3260097970403590
  0.3132995823561310  0.3157982251073962  0.4780408996563770
  0.3240642934322122  0.3605991958654178  0.5532164503658731
  0.6829575122494945  0.4116926291160102  0.6850391922547198
  0.7246145245650364  0.4431885691813913  0.6134509046912698
  0.4969849245540948  0.2946536815430773  0.4965462192834966
  0.5847474188553345  0.2475772381973385  0.4460109378220758
  0.1317156303740476  0.4008402103683556  0.3136160490176324
  0.1520667933949161  0.4670453599289731  0.3768077693486964
  0.2214703973106080  0.1606285541294233  0.4560989386508958
  0.1687072340999393  0.0585593261468100  0.4836011206873560
  0.1936931499037024  0.3960530422101184  0.6311564505112317
  0.2827442496369693  0.4836691429360158  0.6263616359595068
 
  0.00000000E+00  0.00000000E+00  0.00000000E+00
  0.00000000E+00  0.00000000E+00  0.00000000E+00
  0.00000000E+00  0.00000000E+00  0.00000000E+00
  0.00000000E+00  0.00000000E+00  0.00000000E+00
  0.00000000E+00  0.00000000E+00  0.00000000E+00
  0.00000000E+00  0.00000000E+00  0.00000000E+00
  0.00000000E+00  0.00000000E+00  0.00000000E+00
  0.00000000E+00  0.00000000E+00  0.00000000E+00
  0.00000000E+00  0.00000000E+00  0.00000000E+00
  0.00000000E+00  0.00000000E+00  0.00000000E+00
  0.00000000E+00  0.00000000E+00  0.00000000E+00
  0.00000000E+00  0.00000000E+00  0.00000000E+00
  0.00000000E+00  0.00000000E+00  0.00000000E+00
  0.00000000E+00  0.00000000E+00  0.00000000E+00
  0.00000000E+00  0.00000000E+00  0.00000000E+00
  0.00000000E+00  0.00000000E+00  0.00000000E+00
  0.00000000E+00  0.00000000E+00  0.00000000E+00
  0.00000000E+00  0.00000000E+00  0.00000000E+00
  0.00000000E+00  0.00000000E+00  0.00000000E+00
  0.00000000E+00  0.00000000E+00  0.00000000E+00
  0.00000000E+00  0.00000000E+00  0.00000000E+00
  0.00000000E+00  0.00000000E+00  0.00000000E+00
  0.00000000E+00  0.00000000E+00  0.00000000E+00
  0.00000000E+00  0.00000000E+00  0.00000000E+00
  0.00000000E+00  0.00000000E+00  0.00000000E+00
  0.00000000E+00  0.00000000E+00  0.00000000E+00
  0.00000000E+00  0.00000000E+00  0.00000000E+00
  0.00000000E+00  0.00000000E+00  0.00000000E+00
  0.00000000E+00  0.00000000E+00  0.00000000E+00
  0.00000000E+00  0.00000000E+00  0.00000000E+00
  0.00000000E+00  0.00000000E+00  0.00000000E+00
  0.00000000E+00  0.00000000E+00  0.00000000E+00
  0.00000000E+00  0.00000000E+00  0.00000000E+00
  0.00000000E+00  0.00000000E+00  0.00000000E+00
  0.00000000E+00  0.00000000E+00  0.00000000E+00
  0.00000000E+00  0.00000000E+00  0.00000000E+00
  0.00000000E+00  0.00000000E+00  0.00000000E+00
  0.00000000E+00  0.00000000E+00  0.00000000E+00
  0.00000000E+00  0.00000000E+00  0.00000000E+00
  0.00000000E+00  0.00000000E+00  0.00000000E+00
  0.00000000E+00  0.00000000E+00  0.00000000E+00
  0.00000000E+00  0.00000000E+00  0.00000000E+00
  0.00000000E+00  0.00000000E+00  0.00000000E+00
  0.00000000E+00  0.00000000E+00  0.00000000E+00
  0.00000000E+00  0.00000000E+00  0.00000000E+00
  0.00000000E+00  0.00000000E+00  0.00000000E+00
  0.00000000E+00  0.00000000E+00  0.00000000E+00
  0.00000000E+00  0.00000000E+00  0.00000000E+00
  0.00000000E+00  0.00000000E+00  0.00000000E+00
  0.00000000E+00  0.00000000E+00  0.00000000E+00
  0.00000000E+00  0.00000000E+00  0.00000000E+00
  0.00000000E+00  0.00000000E+00  0.00000000E+00
  0.00000000E+00  0.00000000E+00  0.00000000E+00
  0.00000000E+00  0.00000000E+00  0.00000000E+00
  0.00000000E+00  0.00000000E+00  0.00000000E+00
  0.00000000E+00  0.00000000E+00  0.00000000E+00
  0.00000000E+00  0.00000000E+00  0.00000000E+00
  0.00000000E+00  0.00000000E+00  0.00000000E+00
  0.00000000E+00  0.00000000E+00  0.00000000E+00
  0.00000000E+00  0.00000000E+00  0.00000000E+00
  0.00000000E+00  0.00000000E+00  0.00000000E+00
  0.00000000E+00  0.00000000E+00  0.00000000E+00
  0.00000000E+00  0.00000000E+00  0.00000000E+00
  0.00000000E+00  0.00000000E+00  0.00000000E+00
  0.00000000E+00  0.00000000E+00  0.00000000E+00
  0.00000000E+00  0.00000000E+00  0.00000000E+00
  0.00000000E+00  0.00000000E+00  0.00000000E+00
  0.00000000E+00  0.00000000E+00  0.00000000E+00
  0.00000000E+00  0.00000000E+00  0.00000000E+00
  0.00000000E+00  0.00000000E+00  0.00000000E+00
  0.00000000E+00  0.00000000E+00  0.00000000E+00
  0.00000000E+00  0.00000000E+00  0.00000000E+00
  0.00000000E+00  0.00000000E+00  0.00000000E+00
  0.00000000E+00  0.00000000E+00  0.00000000E+00
  0.00000000E+00  0.00000000E+00  0.00000000E+00
  0.00000000E+00  0.00000000E+00  0.00000000E+00
  0.00000000E+00  0.00000000E+00  0.00000000E+00
  0.00000000E+00  0.00000000E+00  0.00000000E+00
  0.00000000E+00  0.00000000E+00  0.00000000E+00
  0.00000000E+00  0.00000000E+00  0.00000000E+00
  0.00000000E+00  0.00000000E+00  0.00000000E+00
  0.00000000E+00  0.00000000E+00  0.00000000E+00
  0.00000000E+00  0.00000000E+00  0.00000000E+00
  0.00000000E+00  0.00000000E+00  0.00000000E+00
  0.00000000E+00  0.00000000E+00  0.00000000E+00
  0.00000000E+00  0.00000000E+00  0.00000000E+00
  0.00000000E+00  0.00000000E+00  0.00000000E+00
  0.00000000E+00  0.00000000E+00  0.00000000E+00
  0.00000000E+00  0.00000000E+00  0.00000000E+00
  0.00000000E+00  0.00000000E+00  0.00000000E+00
  0.00000000E+00  0.00000000E+00  0.00000000E+00
  0.00000000E+00  0.00000000E+00  0.00000000E+00
  0.00000000E+00  0.00000000E+00  0.00000000E+00
  0.00000000E+00  0.00000000E+00  0.00000000E+00
  0.00000000E+00  0.00000000E+00  0.00000000E+00
  0.00000000E+00  0.00000000E+00  0.00000000E+00
  0.00000000E+00  0.00000000E+00  0.00000000E+00
  0.00000000E+00  0.00000000E+00  0.00000000E+00
  0.00000000E+00  0.00000000E+00  0.00000000E+00
  0.00000000E+00  0.00000000E+00  0.00000000E+00
  0.00000000E+00  0.00000000E+00  0.00000000E+00
  0.00000000E+00  0.00000000E+00  0.00000000E+00
  0.00000000E+00  0.00000000E+00  0.00000000E+00
  0.00000000E+00  0.00000000E+00  0.00000000E+00
  0.00000000E+00  0.00000000E+00  0.00000000E+00
  0.00000000E+00  0.00000000E+00  0.00000000E+00
  0.00000000E+00  0.00000000E+00  0.00000000E+00
  0.00000000E+00  0.00000000E+00  0.00000000E+00
  0.00000000E+00  0.00000000E+00  0.00000000E+00
  0.00000000E+00  0.00000000E+00  0.00000000E+00
  0.00000000E+00  0.00000000E+00  0.00000000E+00
  0.00000000E+00  0.00000000E+00  0.00000000E+00
  0.00000000E+00  0.00000000E+00  0.00000000E+00
  0.00000000E+00  0.00000000E+00  0.00000000E+00
  0.00000000E+00  0.00000000E+00  0.00000000E+00
  0.00000000E+00  0.00000000E+00  0.00000000E+00
  0.00000000E+00  0.00000000E+00  0.00000000E+00
  0.00000000E+00  0.00000000E+00  0.00000000E+00
  0.00000000E+00  0.00000000E+00  0.00000000E+00
  0.00000000E+00  0.00000000E+00  0.00000000E+00
  0.00000000E+00  0.00000000E+00  0.00000000E+00
  0.00000000E+00  0.00000000E+00  0.00000000E+00
  0.00000000E+00  0.00000000E+00  0.00000000E+00
  0.00000000E+00  0.00000000E+00  0.00000000E+00
  0.00000000E+00  0.00000000E+00  0.00000000E+00
  0.00000000E+00  0.00000000E+00  0.00000000E+00
  0.00000000E+00  0.00000000E+00  0.00000000E+00
  0.00000000E+00  0.00000000E+00  0.00000000E+00
  0.00000000E+00  0.00000000E+00  0.00000000E+00
  0.00000000E+00  0.00000000E+00  0.00000000E+00
  0.00000000E+00  0.00000000E+00  0.00000000E+00
  0.00000000E+00  0.00000000E+00  0.00000000E+00
  0.00000000E+00  0.00000000E+00  0.00000000E+00
  0.00000000E+00  0.00000000E+00  0.00000000E+00
  0.00000000E+00  0.00000000E+00  0.00000000E+00
  0.00000000E+00  0.00000000E+00  0.00000000E+00
  0.00000000E+00  0.00000000E+00  0.00000000E+00
  0.00000000E+00  0.00000000E+00  0.00000000E+00
  0.00000000E+00  0.00000000E+00  0.00000000E+00
  0.00000000E+00  0.00000000E+00  0.00000000E+00
  0.00000000E+00  0.00000000E+00  0.00000000E+00
  0.00000000E+00  0.00000000E+00  0.00000000E+00
  0.00000000E+00  0.00000000E+00  0.00000000E+00
  0.00000000E+00  0.00000000E+00  0.00000000E+00
  0.00000000E+00  0.00000000E+00  0.00000000E+00
  0.00000000E+00  0.00000000E+00  0.00000000E+00
  0.00000000E+00  0.00000000E+00  0.00000000E+00
  0.00000000E+00  0.00000000E+00  0.00000000E+00
  0.00000000E+00  0.00000000E+00  0.00000000E+00
  0.00000000E+00  0.00000000E+00  0.00000000E+00
  0.00000000E+00  0.00000000E+00  0.00000000E+00
  0.00000000E+00  0.00000000E+00  0.00000000E+00
  0.00000000E+00  0.00000000E+00  0.00000000E+00
  0.00000000E+00  0.00000000E+00  0.00000000E+00
  0.00000000E+00  0.00000000E+00  0.00000000E+00
  0.00000000E+00  0.00000000E+00  0.00000000E+00
  0.00000000E+00  0.00000000E+00  0.00000000E+00
  0.00000000E+00  0.00000000E+00  0.00000000E+00
  0.00000000E+00  0.00000000E+00  0.00000000E+00
  0.00000000E+00  0.00000000E+00  0.00000000E+00
  0.00000000E+00  0.00000000E+00  0.00000000E+00
  0.00000000E+00  0.00000000E+00  0.00000000E+00
  0.00000000E+00  0.00000000E+00  0.00000000E+00
  0.00000000E+00  0.00000000E+00  0.00000000E+00
  0.00000000E+00  0.00000000E+00  0.00000000E+00
  0.00000000E+00  0.00000000E+00  0.00000000E+00
  0.00000000E+00  0.00000000E+00  0.00000000E+00
  0.00000000E+00  0.00000000E+00  0.00000000E+00
  0.00000000E+00  0.00000000E+00  0.00000000E+00
  0.00000000E+00  0.00000000E+00  0.00000000E+00
  0.00000000E+00  0.00000000E+00  0.00000000E+00
  0.00000000E+00  0.00000000E+00  0.00000000E+00
  0.00000000E+00  0.00000000E+00  0.00000000E+00
  0.00000000E+00  0.00000000E+00  0.00000000E+00
  0.00000000E+00  0.00000000E+00  0.00000000E+00
  0.00000000E+00  0.00000000E+00  0.00000000E+00
  0.00000000E+00  0.00000000E+00  0.00000000E+00
  0.00000000E+00  0.00000000E+00  0.00000000E+00
  0.00000000E+00  0.00000000E+00  0.00000000E+00
  0.00000000E+00  0.00000000E+00  0.00000000E+00
  0.00000000E+00  0.00000000E+00  0.00000000E+00
  0.00000000E+00  0.00000000E+00  0.00000000E+00
  0.00000000E+00  0.00000000E+00  0.00000000E+00
  0.00000000E+00  0.00000000E+00  0.00000000E+00
  0.00000000E+00  0.00000000E+00  0.00000000E+00
  0.00000000E+00  0.00000000E+00  0.00000000E+00
  0.00000000E+00  0.00000000E+00  0.00000000E+00
  0.00000000E+00  0.00000000E+00  0.00000000E+00
  0.00000000E+00  0.00000000E+00  0.00000000E+00
  0.00000000E+00  0.00000000E+00  0.00000000E+00
  0.00000000E+00  0.00000000E+00  0.00000000E+00
  0.00000000E+00  0.00000000E+00  0.00000000E+00
  0.00000000E+00  0.00000000E+00  0.00000000E+00
  0.00000000E+00  0.00000000E+00  0.00000000E+00
  0.00000000E+00  0.00000000E+00  0.00000000E+00
  0.00000000E+00  0.00000000E+00  0.00000000E+00
  0.00000000E+00  0.00000000E+00  0.00000000E+00
