 C  N Ni  O  H                          
   1.00000000000000     
    12.4553732999999998    0.0000000000000000    0.0000000000000000
     0.0000000000000000   12.7322628600000005    0.0000000000000000
     0.0000000000000000    0.0000000000000000   30.0000000000000000
   C    N    Ni   O    H 
    54     4     1    46    92
Direct
  0.0461353023087375  0.1465953423168750  0.0757799049165530
  0.1468742484710631  0.2018564779293689  0.0747553259045738
  0.1463102990541748  0.3130802244409758  0.0732808586172289
  0.0462429625076980  0.3682590982202881  0.0726179245603112
  0.2477688308026815  0.1472738805774510  0.0730549446458480
  0.3478935254679566  0.2038934277956312  0.0703389897861541
  0.3467598496426721  0.3161409007386201  0.0693500687553414
  0.2454967339231705  0.3688913514947822  0.0706868815348870
  0.4478294010237671  0.1476741542902254  0.0681594563669635
  0.5461859692231733  0.2067395438518391  0.0668624271587840
  0.5461427645699147  0.3210593046891260  0.0660022620846255
  0.4450350754338686  0.3772160499240274  0.0665698804501057
  0.6445575078356020  0.1476402111107329  0.0674230682872335
  0.7445299269884026  0.2037438724252139  0.0690888020852127
  0.7455416356890786  0.3159087587251407  0.0676666918708498
  0.6472134037082042  0.3770538196585769  0.0653078093809135
  0.8446075228818530  0.1471977990708807  0.0721007255769850
  0.9454215644410954  0.2017165018750444  0.0741708245791411
  0.9462117952263055  0.3130518135958116  0.0724370263641568
  0.8470446721027184  0.3687911451157168  0.0689737088173061
  0.0462759385270181  0.4792634094872864  0.0706349889766343
  0.1447620155478462  0.5356524074058261  0.0697816831518541
  0.1447936655766126  0.6467698635768713  0.0696550722119786
  0.0462723085184878  0.7032169280867741  0.0704488702325830
  0.2437945933117452  0.4800919327314620  0.0688263311664400
  0.3414239872503562  0.5357240990534616  0.0660689763919596
  0.3415437963632388  0.6468473203908310  0.0654014299513441
  0.2438066655000466  0.7023955553272100  0.0682554460640262
  0.7510487354072827  0.5357719686768875  0.0641129648108969
  0.7509638104819151  0.6468343671151143  0.0638343869538900
  0.8487809848432620  0.4801228952162767  0.0669112967645450
  0.9479054522694833  0.5356705764618549  0.0686046907350063
  0.9478236664804377  0.6468367232348464  0.0685091397523520
  0.8487994832320932  0.7024412371234208  0.0666095347567438
  0.0462106407387832  0.8141843994715865  0.0721939587108690
  0.1462696918758450  0.8693326299489685  0.0727763929519974
  0.0461247748989974  0.0357295806702404  0.0755952988477862
  0.2454941047222062  0.8135724080839067  0.0699039021532166
  0.3467655161822147  0.8662142569368603  0.0682699595517733
  0.3478308756548618  0.9784222021945072  0.0696315587778306
  0.2477536356664797  0.0350264124421843  0.0727984197720364
  0.4449791463309867  0.8050755509978491  0.0651766354393327
  0.5461310861261607  0.8612297925168635  0.0646637194875430
  0.5461661782228562  0.9755207530085722  0.0659907346772614
  0.4477777692905260  0.0346064183089501  0.0677117968544195
  0.6473245460979703  0.8052525202096107  0.0642623894496600
  0.7456720320262016  0.8663909537953586  0.0667946098713961
  0.7446203362634033  0.9785296985603877  0.0684061054618856
  0.6445947967646998  0.0345959772454863  0.0669876239255806
  0.8470541057104503  0.8136631964987913  0.0683864910996152
  0.9461829379388648  0.8693866972324558  0.0718936222860555
  0.8446382026727596  0.0350800696721670  0.0717907196573713
  0.1468427295181669  0.9805525714835305  0.0744250476768625
  0.9454540847761790  0.9806152665092246  0.0737335241710963
  0.4401444148267139  0.4853688914171363  0.0651187749770080
  0.4400056897014201  0.6970374131337471  0.0635478722332104
  0.6521528367461701  0.4853259803799673  0.0636564320875432
  0.6523057617958847  0.6970779899892074  0.0628103739157791
  0.5461803833748013  0.5912154958975059  0.0630035199076911
  0.8035870764901231  0.9856981527184574  0.4386884597034840
  0.4101773482378256  0.3420707296265503  0.3124841822756946
  0.9797673012254716  0.2479343858608143  0.3022823450462852
  0.4370676179917066  0.7146630348900690  0.2707382742636807
  0.1286884472907262  0.6155270921979079  0.3156283204494655
  0.8288998230364296  0.7862177787991237  0.4093292660748657
  0.4738319245010682  0.7866788561760535  0.5177416570076472
  0.3576192199947890  0.5982418427032281  0.5405585942837354
  0.2503193409774647  0.6973226726751007  0.6268610492636629
  0.1709277222948868  0.8862723818249650  0.4388175489025793
  0.7490966777514166  0.5957497873561782  0.5860315085747965
  0.1819485102337153  0.3656203826448441  0.2878895277851014
  0.7662328820069254  0.7541948911758705  0.3203967790159765
  0.9247539159755690  0.2328837170978512  0.3931795649885981
  0.6041448363683365  0.7639728299805009  0.6208555907927947
  0.9184843179432914  0.5335085958884994  0.5265313277602005
  0.0204884227595959  0.0733760281671787  0.4489043377178548
  0.4897669230152160  0.0889136272485963  0.3121650072379699
  0.2776459298390661  0.9834269375371324  0.2673875157464396
  0.5486577569088650  0.7768770366823644  0.3468556010392272
  0.7609760056284683  0.4150437828924385  0.1797173849832713
  0.7265402390814537  0.1269355300092208  0.3696940600523032
  0.7205788478387181  0.8635468053718653  0.5130869004583024
  0.2387253855616246  0.1037465769626243  0.1861254631010939
  0.7468114695637829  0.6552871708187554  0.4755310919148628
  0.6819434730755081  0.2756341325308240  0.2536311495958581
  0.0708239749248187  0.0236345905256691  0.3317342164799789
  0.5858551124306314  0.5788592459244560  0.1788414861358643
  0.5271841219225366  0.6543186340320514  0.4337215540618026
  0.8681045719235875  0.5649116663851860  0.3088697881665594
  0.7580101740879340  0.4608102606011346  0.3786186932270315
  0.0549762861192999  0.9450680496923679  0.1966649144923032
  0.1236176633700142  0.5397905599559863  0.4730313548904001
  0.5999698455967194  0.4322636924463672  0.6169513571458727
  0.9397578590803143  0.4172183549944689  0.4430639400762793
  0.3720183895452041  0.6891466063765492  0.1670936058306952
  0.8587140538503937  0.0971111559815394  0.2353439076790298
  0.3574901748854156  0.5176737045806020  0.3952542662127290
  0.2434137725240731  0.4915668794416538  0.1797929153215823
  0.1838830506830298  0.7335397551665559  0.2215298626707838
  0.4292512267816889  0.5026074867658984  0.2484292080449786
  0.4569128631127035  0.3470889526580819  0.4424946891711127
  0.3075714186259106  0.0176302386325611  0.3839370498758266
  0.0795685632049726  0.2581462444536378  0.2031893951006974
  0.0678108286015870  0.6989993684801562  0.4075906443424469
  0.2496489140433522  0.8082302685696864  0.5238041460103424
  0.8763753140754651  1.0118791726388179  0.4452012643344030
  0.8152865857439453  0.9147836565981907  0.4250389064927424
  0.4311254522121575  0.3948589652045543  0.2898119535183862
  0.4472342912078248  0.2773961363985841  0.3040281026533717
  0.0471245459173173  0.2880158605926519  0.3017986389068973
  0.9575310159369278  0.2495308331258455  0.3337459139198383
  0.3976564946861735  0.7727185908588088  0.2574973259460414
  0.4651397417677245  0.7396140965112273  0.2998095277606571
  0.0760567095342634  0.6719828486294148  0.3177396049699573
  0.1544658956168670  0.6117348500647506  0.3464034693004625
  0.7917995203335737  0.7410537722650452  0.4314761541662382
  0.7935717176312954  0.7744657401201855  0.3802222177111937
  0.5268727048350077  0.8413087159212482  0.5119736647240064
  0.4014276808597126  0.8188762621793351  0.5180476111359115
  0.4198034488656104  0.6453479153056916  0.5409432265958948
  0.3463080544914816  0.5799654627829058  0.5717730568591392
  0.2195871218731872  0.7307220385170454  0.6531145144354707
  0.2513294651669930  0.7525493613114012  0.6043128810963063
  0.1173537152314068  0.9427279842953354  0.4406080912586900
  0.2316095181153711  0.9193345111510990  0.4230520046896649
  0.8173657758802076  0.5797501282628307  0.5712435599677120
  0.7168806859062565  0.5269398444727080  0.5915202965444526
  0.1819653445487830  0.4421904048408440  0.2865566152454123
  0.2555912973938356  0.3466548644368780  0.2971477163996359
  0.8014544519557341  0.8095631704484546  0.3035271928439193
  0.8050942521897122  0.6877593682079808  0.3130749079188785
  0.8500041576837658  0.2085073149592389  0.3910517079232539
  0.9278196542129641  0.2950001779326424  0.4129496625952315
  0.5693648339482091  0.7806784215133918  0.5926057887233473
  0.6588050343058862  0.7119782498153899  0.6126433554268824
  0.9962175423483203  0.5431129467237344  0.5239131006017662
  0.8865266079379029  0.5832481301586566  0.5054538450851098
  0.0067020451730725  0.1231109594474673  0.4242669653059505
  0.0299446384992118  0.1183485472853041  0.4748629316682449
  0.5510969893590351  0.1030129146353086  0.3316629607143664
  0.5185742829490723  0.0416169971616567  0.2895563648629078
  0.3273366894730980  0.0280775552924416  0.2838275150646582
  0.2666225787296018  0.0211252684617067  0.2391020716948488
  0.6207467321354586  0.7642712434697984  0.3345959828477362
  0.5470622905339751  0.7398832744051802  0.3755723760475410
  0.7658052191430774  0.4071299265232921  0.1474879809047369
  0.7285567975518720  0.4843362338453798  0.1840943898472418
  0.7577561713877327  0.1065429873604899  0.3411399950473609
  0.7467573672220978  0.0704592842634607  0.3909095469364886
  0.7583098516811705  0.8818039750433910  0.5404199504124406
  0.7487584297257612  0.9119956276680794  0.4900666565193066
  0.1945177061807114  0.1678288778591324  0.1884475946031809
  0.2810112525009204  0.1113949110739106  0.1590588531798927
  0.6733316755297483  0.6355211772311552  0.4669419995530149
  0.7367613222551825  0.7115247671262644  0.4977091554799946
  0.6941623287111995  0.3119354266861664  0.2251780181046829
  0.7150860489637121  0.3232653060659934  0.2750588164317391
  0.0374644359820999  0.0850124101069625  0.3175634762244486
  0.1172169177819285  0.9945616542868611  0.3084678109585126
  0.5372982648846386  0.6388573801041828  0.1831496960712668
  0.5681962852579210  0.5556238911768145  0.1486269930450459
  0.4898856262837482  0.6916212889059730  0.4577916533003962
  0.4735727276501597  0.6062287310777039  0.4206342699033974
  0.9444733748512126  0.5527512998701171  0.3141344637854938
  0.8300098787760730  0.5234442019465498  0.3318389423718140
  0.7736513650530387  0.5070667697738426  0.4037562566318515
  0.8087600797481661  0.4034769782909126  0.3833087712349062
  0.9905399103721744  0.9792410470492939  0.2083079583513488
  0.1017121398481440  0.0029836701757674  0.1874107819502575
  0.1157464821467116  0.5983676773073087  0.4516032818706886
  0.2002917529974950  0.5250723882650539  0.4748933385767538
  0.6052815112139319  0.3793607222391508  0.6402787176476900
  0.5727979571857041  0.4946327038944931  0.6320845324475501
  0.0114858634605480  0.4480647571446348  0.4478521743793189
  0.9051140115955766  0.4294857087099559  0.4719107611063220
  0.3421537034732693  0.6230558198411194  0.1559808093012354
  0.3151557174929485  0.7123084325232112  0.1876314288799386
  0.7946241955751757  0.1416811387275309  0.2364934415604686
  0.9154738426484188  0.1454258297241223  0.2447374111512958
  0.3746518953492107  0.4804289406088879  0.3676242909936173
  0.3682964167590551  0.4628195382180220  0.4177920358218640
  0.3036363417551259  0.4773037921755745  0.2000144406515233
  0.2044317411578775  0.5476656298764462  0.1949840657512302
  0.1463930408266738  0.8001415691303916  0.2160404972832046
  0.1929200579854447  0.7286007077593444  0.2537653639397257
  0.4915901822027943  0.5056021160223836  0.2285067299956275
  0.4222702263218541  0.5768683581041870  0.2582160394294123
  0.5114250726945417  0.3385032654247243  0.4194840755551227
  0.4900128432668644  0.3224854285917510  0.4699337989713405
  0.3703203081777680  0.0295310393625704  0.3649984569347065
  0.2459017802579888  0.0408368335483277  0.3663410976720824
  0.1051374223304654  0.3082809420135484  0.2255472471067178
  0.0196430451536363  0.2924710240292547  0.1883008048897132
  0.1088726916930312  0.7643164520814312  0.4128235478596161
  0.9925078083298315  0.7219672143392842  0.4084408634036383
  0.2144406780554532  0.8292307381253596  0.4956832366863583
  0.2531751598419562  0.7313402384553676  0.5237188307469346
 
  0.00000000E+00  0.00000000E+00  0.00000000E+00
  0.00000000E+00  0.00000000E+00  0.00000000E+00
  0.00000000E+00  0.00000000E+00  0.00000000E+00
  0.00000000E+00  0.00000000E+00  0.00000000E+00
  0.00000000E+00  0.00000000E+00  0.00000000E+00
  0.00000000E+00  0.00000000E+00  0.00000000E+00
  0.00000000E+00  0.00000000E+00  0.00000000E+00
  0.00000000E+00  0.00000000E+00  0.00000000E+00
  0.00000000E+00  0.00000000E+00  0.00000000E+00
  0.00000000E+00  0.00000000E+00  0.00000000E+00
  0.00000000E+00  0.00000000E+00  0.00000000E+00
  0.00000000E+00  0.00000000E+00  0.00000000E+00
  0.00000000E+00  0.00000000E+00  0.00000000E+00
  0.00000000E+00  0.00000000E+00  0.00000000E+00
  0.00000000E+00  0.00000000E+00  0.00000000E+00
  0.00000000E+00  0.00000000E+00  0.00000000E+00
  0.00000000E+00  0.00000000E+00  0.00000000E+00
  0.00000000E+00  0.00000000E+00  0.00000000E+00
  0.00000000E+00  0.00000000E+00  0.00000000E+00
  0.00000000E+00  0.00000000E+00  0.00000000E+00
  0.00000000E+00  0.00000000E+00  0.00000000E+00
  0.00000000E+00  0.00000000E+00  0.00000000E+00
  0.00000000E+00  0.00000000E+00  0.00000000E+00
  0.00000000E+00  0.00000000E+00  0.00000000E+00
  0.00000000E+00  0.00000000E+00  0.00000000E+00
  0.00000000E+00  0.00000000E+00  0.00000000E+00
  0.00000000E+00  0.00000000E+00  0.00000000E+00
  0.00000000E+00  0.00000000E+00  0.00000000E+00
  0.00000000E+00  0.00000000E+00  0.00000000E+00
  0.00000000E+00  0.00000000E+00  0.00000000E+00
  0.00000000E+00  0.00000000E+00  0.00000000E+00
  0.00000000E+00  0.00000000E+00  0.00000000E+00
  0.00000000E+00  0.00000000E+00  0.00000000E+00
  0.00000000E+00  0.00000000E+00  0.00000000E+00
  0.00000000E+00  0.00000000E+00  0.00000000E+00
  0.00000000E+00  0.00000000E+00  0.00000000E+00
  0.00000000E+00  0.00000000E+00  0.00000000E+00
  0.00000000E+00  0.00000000E+00  0.00000000E+00
  0.00000000E+00  0.00000000E+00  0.00000000E+00
  0.00000000E+00  0.00000000E+00  0.00000000E+00
  0.00000000E+00  0.00000000E+00  0.00000000E+00
  0.00000000E+00  0.00000000E+00  0.00000000E+00
  0.00000000E+00  0.00000000E+00  0.00000000E+00
  0.00000000E+00  0.00000000E+00  0.00000000E+00
  0.00000000E+00  0.00000000E+00  0.00000000E+00
  0.00000000E+00  0.00000000E+00  0.00000000E+00
  0.00000000E+00  0.00000000E+00  0.00000000E+00
  0.00000000E+00  0.00000000E+00  0.00000000E+00
  0.00000000E+00  0.00000000E+00  0.00000000E+00
  0.00000000E+00  0.00000000E+00  0.00000000E+00
  0.00000000E+00  0.00000000E+00  0.00000000E+00
  0.00000000E+00  0.00000000E+00  0.00000000E+00
  0.00000000E+00  0.00000000E+00  0.00000000E+00
  0.00000000E+00  0.00000000E+00  0.00000000E+00
  0.00000000E+00  0.00000000E+00  0.00000000E+00
  0.00000000E+00  0.00000000E+00  0.00000000E+00
  0.00000000E+00  0.00000000E+00  0.00000000E+00
  0.00000000E+00  0.00000000E+00  0.00000000E+00
  0.00000000E+00  0.00000000E+00  0.00000000E+00
  0.00000000E+00  0.00000000E+00  0.00000000E+00
  0.00000000E+00  0.00000000E+00  0.00000000E+00
  0.00000000E+00  0.00000000E+00  0.00000000E+00
  0.00000000E+00  0.00000000E+00  0.00000000E+00
  0.00000000E+00  0.00000000E+00  0.00000000E+00
  0.00000000E+00  0.00000000E+00  0.00000000E+00
  0.00000000E+00  0.00000000E+00  0.00000000E+00
  0.00000000E+00  0.00000000E+00  0.00000000E+00
  0.00000000E+00  0.00000000E+00  0.00000000E+00
  0.00000000E+00  0.00000000E+00  0.00000000E+00
  0.00000000E+00  0.00000000E+00  0.00000000E+00
  0.00000000E+00  0.00000000E+00  0.00000000E+00
  0.00000000E+00  0.00000000E+00  0.00000000E+00
  0.00000000E+00  0.00000000E+00  0.00000000E+00
  0.00000000E+00  0.00000000E+00  0.00000000E+00
  0.00000000E+00  0.00000000E+00  0.00000000E+00
  0.00000000E+00  0.00000000E+00  0.00000000E+00
  0.00000000E+00  0.00000000E+00  0.00000000E+00
  0.00000000E+00  0.00000000E+00  0.00000000E+00
  0.00000000E+00  0.00000000E+00  0.00000000E+00
  0.00000000E+00  0.00000000E+00  0.00000000E+00
  0.00000000E+00  0.00000000E+00  0.00000000E+00
  0.00000000E+00  0.00000000E+00  0.00000000E+00
  0.00000000E+00  0.00000000E+00  0.00000000E+00
  0.00000000E+00  0.00000000E+00  0.00000000E+00
  0.00000000E+00  0.00000000E+00  0.00000000E+00
  0.00000000E+00  0.00000000E+00  0.00000000E+00
  0.00000000E+00  0.00000000E+00  0.00000000E+00
  0.00000000E+00  0.00000000E+00  0.00000000E+00
  0.00000000E+00  0.00000000E+00  0.00000000E+00
  0.00000000E+00  0.00000000E+00  0.00000000E+00
  0.00000000E+00  0.00000000E+00  0.00000000E+00
  0.00000000E+00  0.00000000E+00  0.00000000E+00
  0.00000000E+00  0.00000000E+00  0.00000000E+00
  0.00000000E+00  0.00000000E+00  0.00000000E+00
  0.00000000E+00  0.00000000E+00  0.00000000E+00
  0.00000000E+00  0.00000000E+00  0.00000000E+00
  0.00000000E+00  0.00000000E+00  0.00000000E+00
  0.00000000E+00  0.00000000E+00  0.00000000E+00
  0.00000000E+00  0.00000000E+00  0.00000000E+00
  0.00000000E+00  0.00000000E+00  0.00000000E+00
  0.00000000E+00  0.00000000E+00  0.00000000E+00
  0.00000000E+00  0.00000000E+00  0.00000000E+00
  0.00000000E+00  0.00000000E+00  0.00000000E+00
  0.00000000E+00  0.00000000E+00  0.00000000E+00
  0.00000000E+00  0.00000000E+00  0.00000000E+00
  0.00000000E+00  0.00000000E+00  0.00000000E+00
  0.00000000E+00  0.00000000E+00  0.00000000E+00
  0.00000000E+00  0.00000000E+00  0.00000000E+00
  0.00000000E+00  0.00000000E+00  0.00000000E+00
  0.00000000E+00  0.00000000E+00  0.00000000E+00
  0.00000000E+00  0.00000000E+00  0.00000000E+00
  0.00000000E+00  0.00000000E+00  0.00000000E+00
  0.00000000E+00  0.00000000E+00  0.00000000E+00
  0.00000000E+00  0.00000000E+00  0.00000000E+00
  0.00000000E+00  0.00000000E+00  0.00000000E+00
  0.00000000E+00  0.00000000E+00  0.00000000E+00
  0.00000000E+00  0.00000000E+00  0.00000000E+00
  0.00000000E+00  0.00000000E+00  0.00000000E+00
  0.00000000E+00  0.00000000E+00  0.00000000E+00
  0.00000000E+00  0.00000000E+00  0.00000000E+00
  0.00000000E+00  0.00000000E+00  0.00000000E+00
  0.00000000E+00  0.00000000E+00  0.00000000E+00
  0.00000000E+00  0.00000000E+00  0.00000000E+00
  0.00000000E+00  0.00000000E+00  0.00000000E+00
  0.00000000E+00  0.00000000E+00  0.00000000E+00
  0.00000000E+00  0.00000000E+00  0.00000000E+00
  0.00000000E+00  0.00000000E+00  0.00000000E+00
  0.00000000E+00  0.00000000E+00  0.00000000E+00
  0.00000000E+00  0.00000000E+00  0.00000000E+00
  0.00000000E+00  0.00000000E+00  0.00000000E+00
  0.00000000E+00  0.00000000E+00  0.00000000E+00
  0.00000000E+00  0.00000000E+00  0.00000000E+00
  0.00000000E+00  0.00000000E+00  0.00000000E+00
  0.00000000E+00  0.00000000E+00  0.00000000E+00
  0.00000000E+00  0.00000000E+00  0.00000000E+00
  0.00000000E+00  0.00000000E+00  0.00000000E+00
  0.00000000E+00  0.00000000E+00  0.00000000E+00
  0.00000000E+00  0.00000000E+00  0.00000000E+00
  0.00000000E+00  0.00000000E+00  0.00000000E+00
  0.00000000E+00  0.00000000E+00  0.00000000E+00
  0.00000000E+00  0.00000000E+00  0.00000000E+00
  0.00000000E+00  0.00000000E+00  0.00000000E+00
  0.00000000E+00  0.00000000E+00  0.00000000E+00
  0.00000000E+00  0.00000000E+00  0.00000000E+00
  0.00000000E+00  0.00000000E+00  0.00000000E+00
  0.00000000E+00  0.00000000E+00  0.00000000E+00
  0.00000000E+00  0.00000000E+00  0.00000000E+00
  0.00000000E+00  0.00000000E+00  0.00000000E+00
  0.00000000E+00  0.00000000E+00  0.00000000E+00
  0.00000000E+00  0.00000000E+00  0.00000000E+00
  0.00000000E+00  0.00000000E+00  0.00000000E+00
  0.00000000E+00  0.00000000E+00  0.00000000E+00
  0.00000000E+00  0.00000000E+00  0.00000000E+00
  0.00000000E+00  0.00000000E+00  0.00000000E+00
  0.00000000E+00  0.00000000E+00  0.00000000E+00
  0.00000000E+00  0.00000000E+00  0.00000000E+00
  0.00000000E+00  0.00000000E+00  0.00000000E+00
  0.00000000E+00  0.00000000E+00  0.00000000E+00
  0.00000000E+00  0.00000000E+00  0.00000000E+00
  0.00000000E+00  0.00000000E+00  0.00000000E+00
  0.00000000E+00  0.00000000E+00  0.00000000E+00
  0.00000000E+00  0.00000000E+00  0.00000000E+00
  0.00000000E+00  0.00000000E+00  0.00000000E+00
  0.00000000E+00  0.00000000E+00  0.00000000E+00
  0.00000000E+00  0.00000000E+00  0.00000000E+00
  0.00000000E+00  0.00000000E+00  0.00000000E+00
  0.00000000E+00  0.00000000E+00  0.00000000E+00
  0.00000000E+00  0.00000000E+00  0.00000000E+00
  0.00000000E+00  0.00000000E+00  0.00000000E+00
  0.00000000E+00  0.00000000E+00  0.00000000E+00
  0.00000000E+00  0.00000000E+00  0.00000000E+00
  0.00000000E+00  0.00000000E+00  0.00000000E+00
  0.00000000E+00  0.00000000E+00  0.00000000E+00
  0.00000000E+00  0.00000000E+00  0.00000000E+00
  0.00000000E+00  0.00000000E+00  0.00000000E+00
  0.00000000E+00  0.00000000E+00  0.00000000E+00
  0.00000000E+00  0.00000000E+00  0.00000000E+00
  0.00000000E+00  0.00000000E+00  0.00000000E+00
  0.00000000E+00  0.00000000E+00  0.00000000E+00
  0.00000000E+00  0.00000000E+00  0.00000000E+00
  0.00000000E+00  0.00000000E+00  0.00000000E+00
  0.00000000E+00  0.00000000E+00  0.00000000E+00
  0.00000000E+00  0.00000000E+00  0.00000000E+00
  0.00000000E+00  0.00000000E+00  0.00000000E+00
  0.00000000E+00  0.00000000E+00  0.00000000E+00
  0.00000000E+00  0.00000000E+00  0.00000000E+00
  0.00000000E+00  0.00000000E+00  0.00000000E+00
  0.00000000E+00  0.00000000E+00  0.00000000E+00
  0.00000000E+00  0.00000000E+00  0.00000000E+00
  0.00000000E+00  0.00000000E+00  0.00000000E+00
  0.00000000E+00  0.00000000E+00  0.00000000E+00
  0.00000000E+00  0.00000000E+00  0.00000000E+00
  0.00000000E+00  0.00000000E+00  0.00000000E+00
  0.00000000E+00  0.00000000E+00  0.00000000E+00
  0.00000000E+00  0.00000000E+00  0.00000000E+00
  0.00000000E+00  0.00000000E+00  0.00000000E+00
  0.00000000E+00  0.00000000E+00  0.00000000E+00
