 C  N Ni  O  H                          
   1.00000000000000     
    12.4553732999999998    0.0000000000000000    0.0000000000000000
     0.0000000000000000   12.7322628600000005    0.0000000000000000
     0.0000000000000000    0.0000000000000000   30.0000000000000000
   C    N    Ni   O    H 
    54     4     1    47    91
Direct
  0.9386496287041324  0.1366146106593696  0.1083989661188757
  0.0392700931686941  0.1915982882981415  0.1077648648701042
  0.0385597558076269  0.3028560802632399  0.1078841945179128
  0.9386137771501201  0.3579860765727723  0.1083406609389654
  0.1400742273012491  0.1370785183874185  0.1072737030301382
  0.2401281254150017  0.1935978877972117  0.1079847112136183
  0.2390821014727721  0.3058819861882187  0.1084108023036782
  0.1378811672252340  0.3586182106797043  0.1079127775334117
  0.3400536037211145  0.1375547985382420  0.1090184126346415
  0.4385846000868719  0.1966467469069223  0.1103886914393118
  0.4385269076319649  0.3109897612999823  0.1111817230107490
  0.3372957771290093  0.3669389128915604  0.1102164090948611
  0.5370921701175684  0.1375601472256169  0.1105181740172128
  0.6370605105440846  0.1935730245571169  0.1105280341367574
  0.6381437660843062  0.3058560606031474  0.1107659616041991
  0.5398330426943526  0.3669117306028294  0.1115763144594173
  0.7372170975324178  0.1371611839263692  0.1098709451999024
  0.8380680902130450  0.1916374835926704  0.1092385324601748
  0.8387293883069429  0.3028918053845325  0.1092023173249948
  0.7393861857979793  0.3586719768232215  0.1099406427907706
  0.9385506756257659  0.4692290883506336  0.1080065821435314
  0.0370772845178381  0.5254747769327793  0.1075854102212496
  0.0371279137723501  0.6366527341658093  0.1073837680593427
  0.9386106633115144  0.6927984249459047  0.1077769340084400
  0.1362056619644115  0.4698769615671310  0.1080237332094446
  0.2342053587940116  0.5253525784622066  0.1089870523202776
  0.2341808161323423  0.6369879141677363  0.1084432495242843
  0.1361584276248117  0.6922791467484678  0.1074381000656821
  0.6429659159346409  0.5253288717863838  0.1105248134028803
  0.6428199819975295  0.6369280658622467  0.1098082125401370
  0.7409919882071548  0.4698976708090303  0.1095943607374414
  0.8400545205894466  0.5253731585120495  0.1085396647462189
  0.8401087475884562  0.6365915346416317  0.1084851635051257
  0.7409885158913422  0.6921616749061723  0.1090843638511917
  0.9386811409134236  0.8040941529957386  0.1077922745891940
  0.0386358603407095  0.8593049220543660  0.1072425568448949
  0.9386878646066920  0.0257113052267051  0.1081539878173400
  0.1379520369438793  0.8035235784946443  0.1072580251094245
  0.2390875596413657  0.8563723816222828  0.1076896421626702
  0.2401962542421429  0.9685722836200619  0.1074769389676755
  0.1401474881533027  0.0251003123849072  0.1069785986137424
  0.3373447737108350  0.7953803065704187  0.1089797721669488
  0.4385013718821327  0.8512686777204103  0.1095908769337650
  0.4385534610767888  0.9653771669445198  0.1095172049244577
  0.3401271965726622  0.0243896523744671  0.1086619218011208
  0.5396348218190156  0.7953299638824659  0.1097200207622201
  0.6380074142418269  0.8564326242175591  0.1095234960274141
  0.6369887805384086  0.9686994568494890  0.1098372016437793
  0.5369724962305950  0.0245108630577907  0.1100655477562430
  0.7393193554165165  0.8034835224799209  0.1089385301031584
  0.8387424406619128  0.8592964076897400  0.1084947402679443
  0.7371480076766675  0.0251626607103610  0.1096146530624462
  0.0393542592954324  0.9705935072859226  0.1072201314000583
  0.8380151888597747  0.9706284646015718  0.1088082803790376
  0.3322688922139458  0.4751493273551876  0.1106169938062630
  0.3320258878189681  0.6874520514530864  0.1092805740692754
  0.5449409148860700  0.4750595286414349  0.1118377537826819
  0.5449987128199044  0.6874587269546053  0.1093653091976589
  0.4384919467207565  0.5817722184817412  0.1149772636330070
  0.8993492247845490  0.7816818785638886  0.4165452155256037
  0.5186898007789198  0.3014880811707620  0.3178471815609211
  0.2947324409732632  0.3323283184609310  0.2808936598610193
  0.8599818320091566  0.2229267187633315  0.2308934873372123
  0.0044670757923255  0.9211058878892310  0.2215354058762451
  0.8023547369385803  0.7430956263440073  0.3365151441915230
  0.6638612372144437  0.4548201486771642  0.4649578532773852
  0.9100361409301145  0.4603995456808880  0.4902834827068437
  0.9778282925641574  0.1249359868699224  0.5889812785333665
  0.3181922408376505  0.7233754937792818  0.3890912437336436
  0.9549630284639137  0.5617372946788467  0.4104224186256880
  0.7203577833277508  0.8334695114344159  0.2213383209273396
  0.8600221564622665  0.6762957191251736  0.2520331454813511
  0.0901445260120680  0.4274220336424207  0.3078259050414561
  0.4440835485041394  0.5363524077218752  0.4484769991578490
  0.8927396749962807  0.3946379618074302  0.3525525088075113
  0.0547312551568771  0.9436626188492667  0.4222193816974480
  0.2342916523296142  0.8372725924099725  0.4598194504065179
  0.7027153696793121  0.0689553930202461  0.2290324895993409
  0.4632629656005575  0.6503382438848632  0.3215853057362348
  0.4282961983160944  0.9489333216705943  0.2248782164785641
  0.8497419751429440  0.1795963304327895  0.3596061471961010
  0.6542727683571883  0.5739132098937636  0.3495913068239645
  0.1761420132333152  0.0468720034867524  0.2104540497389606
  0.7165653410547304  0.3929699766907266  0.2944004594376752
  0.2024441968918282  0.8104821962609005  0.3178699292148930
  0.5585238426775097  0.8268076444526969  0.2822457313996132
  0.5259603701927114  0.3624038470897670  0.4035562529982928
  0.0676442037146229  0.7061203291584177  0.2172005361635384
  0.7284249905933708  0.9377182448122628  0.4387964536073354
  0.9665515942950640  0.0872871805411512  0.2877937211197835
  0.8871271230350070  0.0880578771045199  0.4431063553142483
  0.6568701307546706  0.2661005921623402  0.5086076997649135
  0.3363769313448259  0.5304118196173185  0.2628768610772390
  0.2913251139078271  0.7773702436418298  0.2308881176938965
  0.1527264351187588  0.2637142084492661  0.2092088861562715
  0.1348817471683587  0.6130572159888302  0.3578342557079852
  0.6758772645017787  0.9225411436906389  0.3485675655014839
  0.0212623078069132  0.4560159024862909  0.2196966228564441
  0.7878941097108858  0.4830729448258411  0.2183413102339741
  0.5686583051021470  0.1484610835341065  0.4298349344528413
  0.6531424630613915  0.1272661379659758  0.3200504743412541
  0.3946742958450685  0.1722418622899079  0.2258879268006589
  0.1385047387217254  0.0236764948431733  0.3380219068164853
  0.8824883029256192  0.2413472142777800  0.5139899585048010
  0.5439560933679967  0.6192635266666500  0.2069307751607342
  0.4370295262078157  0.6061232968692107  0.1889477539042121
  0.8399592314895615  0.8154166775579839  0.4325981349454049
  0.8706947957237564  0.7714509573189507  0.3858442139953788
  0.5171084948052703  0.3294941575826178  0.3491481916837784
  0.4448064824225500  0.3066320167819315  0.3067337554539063
  0.3144424054426861  0.4075629215210950  0.2728036734550077
  0.2295139977179179  0.3418801902883455  0.2989203905955242
  0.8046727594998081  0.1675832926845266  0.2259235475779797
  0.8229414190918120  0.2744051904136364  0.2495297443256754
  0.9591230703385550  0.9380528343667245  0.1961065659416395
  0.0712347544740324  0.9641920987768248  0.2171618794580126
  0.8331252985181220  0.7223529275561726  0.3073011554350475
  0.7629398927160673  0.8095606778763661  0.3321323871558542
  0.6582736504017361  0.3897044926063946  0.4836739549005238
  0.7381994424844975  0.4772368806607502  0.4691586480043247
  0.9420802219299260  0.4931154012125036  0.4634319734540573
  0.9404877568196974  0.4981700939490992  0.5154802920305444
  0.9458165074232385  0.1721549533496710  0.5667477098372646
 -0.0196553132979617  0.1660275931116418  0.6162720342056194
  0.2866119625062286  0.7676848675176067  0.3652899545157145
  0.3004487789179945  0.7617347929347119  0.4169528541319212
  0.9236857900006420  0.6309284692999775  0.4174741792540611
  0.0225026095419199  0.5796703771122429  0.3947091849890182
  0.6891780055252280  0.8147854803466833  0.1926422703196047
  0.6603190746571967  0.8217255348381178  0.2431679625101831
  0.9366437176889977  0.6814195450678561  0.2436051311859964
  0.8216411702582676  0.7343140651810686  0.2367950917668673
  0.1156556090924704  0.4922585818328194  0.3225750834191385
  0.0222064570039204  0.4106150003915781  0.3234825921604773
  0.4337513377025337  0.6010354741545545  0.4316678655568394
  0.5189059107452142  0.5371957262029069  0.4589247104015493
  0.8278918478126918  0.4053562931930319  0.3341676389880165
  0.8959806467050500  0.4525252026123235  0.3744977029984116
  0.0049903922154905  0.8839384963502480  0.4169908020597446
  0.0793309026346917  0.9678169096911258  0.3927518418608160
  0.2636424794127537  0.8730016341847571  0.4857047621486196
  0.1723358062776268  0.8798295187142169  0.4498302472099788
  0.6799484136903602  0.0815366158787085  0.2600839870598783
  0.7141182061975402  0.9929034238121083  0.2265164330819796
  0.5314237376876327  0.6172546163775952  0.3326331044783377
  0.4246496425655535  0.6739205649190624  0.3483960069326403
  0.4324111532775076  0.0253538911391697  0.2286679548085980
  0.4765181142997618  0.9173768922463620  0.2473386942700515
  0.8720220387737443  0.2543721210071075  0.3598997011456370
  0.8941589422006034  0.1437079991770633  0.3369767964650043
  0.6786554674596363  0.5159412601249446  0.3304717683624086
  0.7071645190194541  0.6310089902508235  0.3457181931906037
  0.1616946513353321  0.1234621573848176  0.2112947810274509
  0.2507538061693477  0.0387318448415453  0.2195462022345300
  0.7307710888310106  0.4249937996436030  0.2645627214425854
  0.6433578704903318  0.3630764450748294  0.2953859418989401
  0.1819169755972558  0.8849608017107752  0.3198860359517299
  0.2379496091922880  0.8000771873264104  0.2887369521248068
  0.5888057369426596  0.8572482009949024  0.3099218562233038
  0.5203986386481962  0.7622335710868829  0.2921700529850007
  0.4731402503113017  0.4140228761961429  0.4149149705644857
  0.5933033381991361  0.3924786961058970  0.4157117276635210
  0.0482206088103465  0.7813491564384984  0.2151367123853415
  0.1431189133031565  0.7097096060266219  0.2263848377039220
  0.6695653951383242  0.9557527279058837  0.4587396913428101
  0.7823084864609295 -0.0045420009314861  0.4425319337478541
  0.9424464672665039  0.1429576984890379  0.2666140286360970
  0.9600703671208587  0.0219111130633396  0.2705205060436395
  0.8775441896957664  0.1238301754520176  0.4139970983190754
  0.9527985815581371  0.0449863697555792  0.4396160119833959
  0.6358875387545383  0.2155051348907678  0.4855591916971057
  0.7339130729247982  0.2519744939655807  0.5141034771685502
  0.5677537666986250  0.5466533072764028  0.2120164032645285
  0.3797362241589327  0.5690746036953231  0.2852601058383926
  0.3288291498142111  0.8447271042866186  0.2254077644778578
  0.3428057301360775  0.7232973339498904  0.2214862588337555
  0.1982491124880660  0.2942285978630075  0.2326330764594751
  0.0931426820084090  0.3135171687870759  0.2063968316716295
  0.1285438856138362  0.6776501674619139  0.3400574106102461
  0.2009492803071759  0.6274972278163616  0.3750509383458180
  0.6862721723093052  0.9256741438469048  0.3813473038462848
  0.6650796622839502  0.9962154703734012  0.3390086144202228
  0.0420778746385513  0.5262077141241966  0.2098392606454393
  0.0456521222345590  0.4524768436596818  0.2512804022972397
  0.8597317175532222  0.4520548023778477  0.2143527205684004
  0.8065984290138654  0.5540865804652356  0.2295443835066521
  0.6074894108796350  0.1278978010634182  0.4030253281049945
  0.5394890139489901  0.2183462468206874  0.4224128555445528
  0.7184077154987761  0.1605421942952167  0.3326115045137389
  0.5965838847852590  0.1821772863418775  0.3190245290230428
  0.3581319802761456  0.2225089431725060  0.2455967473946596
  0.3824114891990153  0.1984975830345786  0.1958686477144203
  0.0850914980306304  0.0587742528189220  0.3183412672491404
  0.1966193762263846  0.0736805252643737  0.3422910297446691
  0.8947746602644127  0.1918969464096274  0.4892367722840247
  0.9044757775398081  0.3111754961821153  0.5033269906988406
  0.3701923264348734  0.5482536833878700  0.2337812064949611
 
  0.00000000E+00  0.00000000E+00  0.00000000E+00
  0.00000000E+00  0.00000000E+00  0.00000000E+00
  0.00000000E+00  0.00000000E+00  0.00000000E+00
  0.00000000E+00  0.00000000E+00  0.00000000E+00
  0.00000000E+00  0.00000000E+00  0.00000000E+00
  0.00000000E+00  0.00000000E+00  0.00000000E+00
  0.00000000E+00  0.00000000E+00  0.00000000E+00
  0.00000000E+00  0.00000000E+00  0.00000000E+00
  0.00000000E+00  0.00000000E+00  0.00000000E+00
  0.00000000E+00  0.00000000E+00  0.00000000E+00
  0.00000000E+00  0.00000000E+00  0.00000000E+00
  0.00000000E+00  0.00000000E+00  0.00000000E+00
  0.00000000E+00  0.00000000E+00  0.00000000E+00
  0.00000000E+00  0.00000000E+00  0.00000000E+00
  0.00000000E+00  0.00000000E+00  0.00000000E+00
  0.00000000E+00  0.00000000E+00  0.00000000E+00
  0.00000000E+00  0.00000000E+00  0.00000000E+00
  0.00000000E+00  0.00000000E+00  0.00000000E+00
  0.00000000E+00  0.00000000E+00  0.00000000E+00
  0.00000000E+00  0.00000000E+00  0.00000000E+00
  0.00000000E+00  0.00000000E+00  0.00000000E+00
  0.00000000E+00  0.00000000E+00  0.00000000E+00
  0.00000000E+00  0.00000000E+00  0.00000000E+00
  0.00000000E+00  0.00000000E+00  0.00000000E+00
  0.00000000E+00  0.00000000E+00  0.00000000E+00
  0.00000000E+00  0.00000000E+00  0.00000000E+00
  0.00000000E+00  0.00000000E+00  0.00000000E+00
  0.00000000E+00  0.00000000E+00  0.00000000E+00
  0.00000000E+00  0.00000000E+00  0.00000000E+00
  0.00000000E+00  0.00000000E+00  0.00000000E+00
  0.00000000E+00  0.00000000E+00  0.00000000E+00
  0.00000000E+00  0.00000000E+00  0.00000000E+00
  0.00000000E+00  0.00000000E+00  0.00000000E+00
  0.00000000E+00  0.00000000E+00  0.00000000E+00
  0.00000000E+00  0.00000000E+00  0.00000000E+00
  0.00000000E+00  0.00000000E+00  0.00000000E+00
  0.00000000E+00  0.00000000E+00  0.00000000E+00
  0.00000000E+00  0.00000000E+00  0.00000000E+00
  0.00000000E+00  0.00000000E+00  0.00000000E+00
  0.00000000E+00  0.00000000E+00  0.00000000E+00
  0.00000000E+00  0.00000000E+00  0.00000000E+00
  0.00000000E+00  0.00000000E+00  0.00000000E+00
  0.00000000E+00  0.00000000E+00  0.00000000E+00
  0.00000000E+00  0.00000000E+00  0.00000000E+00
  0.00000000E+00  0.00000000E+00  0.00000000E+00
  0.00000000E+00  0.00000000E+00  0.00000000E+00
  0.00000000E+00  0.00000000E+00  0.00000000E+00
  0.00000000E+00  0.00000000E+00  0.00000000E+00
  0.00000000E+00  0.00000000E+00  0.00000000E+00
  0.00000000E+00  0.00000000E+00  0.00000000E+00
  0.00000000E+00  0.00000000E+00  0.00000000E+00
  0.00000000E+00  0.00000000E+00  0.00000000E+00
  0.00000000E+00  0.00000000E+00  0.00000000E+00
  0.00000000E+00  0.00000000E+00  0.00000000E+00
  0.00000000E+00  0.00000000E+00  0.00000000E+00
  0.00000000E+00  0.00000000E+00  0.00000000E+00
  0.00000000E+00  0.00000000E+00  0.00000000E+00
  0.00000000E+00  0.00000000E+00  0.00000000E+00
  0.00000000E+00  0.00000000E+00  0.00000000E+00
  0.00000000E+00  0.00000000E+00  0.00000000E+00
  0.00000000E+00  0.00000000E+00  0.00000000E+00
  0.00000000E+00  0.00000000E+00  0.00000000E+00
  0.00000000E+00  0.00000000E+00  0.00000000E+00
  0.00000000E+00  0.00000000E+00  0.00000000E+00
  0.00000000E+00  0.00000000E+00  0.00000000E+00
  0.00000000E+00  0.00000000E+00  0.00000000E+00
  0.00000000E+00  0.00000000E+00  0.00000000E+00
  0.00000000E+00  0.00000000E+00  0.00000000E+00
  0.00000000E+00  0.00000000E+00  0.00000000E+00
  0.00000000E+00  0.00000000E+00  0.00000000E+00
  0.00000000E+00  0.00000000E+00  0.00000000E+00
  0.00000000E+00  0.00000000E+00  0.00000000E+00
  0.00000000E+00  0.00000000E+00  0.00000000E+00
  0.00000000E+00  0.00000000E+00  0.00000000E+00
  0.00000000E+00  0.00000000E+00  0.00000000E+00
  0.00000000E+00  0.00000000E+00  0.00000000E+00
  0.00000000E+00  0.00000000E+00  0.00000000E+00
  0.00000000E+00  0.00000000E+00  0.00000000E+00
  0.00000000E+00  0.00000000E+00  0.00000000E+00
  0.00000000E+00  0.00000000E+00  0.00000000E+00
  0.00000000E+00  0.00000000E+00  0.00000000E+00
  0.00000000E+00  0.00000000E+00  0.00000000E+00
  0.00000000E+00  0.00000000E+00  0.00000000E+00
  0.00000000E+00  0.00000000E+00  0.00000000E+00
  0.00000000E+00  0.00000000E+00  0.00000000E+00
  0.00000000E+00  0.00000000E+00  0.00000000E+00
  0.00000000E+00  0.00000000E+00  0.00000000E+00
  0.00000000E+00  0.00000000E+00  0.00000000E+00
  0.00000000E+00  0.00000000E+00  0.00000000E+00
  0.00000000E+00  0.00000000E+00  0.00000000E+00
  0.00000000E+00  0.00000000E+00  0.00000000E+00
  0.00000000E+00  0.00000000E+00  0.00000000E+00
  0.00000000E+00  0.00000000E+00  0.00000000E+00
  0.00000000E+00  0.00000000E+00  0.00000000E+00
  0.00000000E+00  0.00000000E+00  0.00000000E+00
  0.00000000E+00  0.00000000E+00  0.00000000E+00
  0.00000000E+00  0.00000000E+00  0.00000000E+00
  0.00000000E+00  0.00000000E+00  0.00000000E+00
  0.00000000E+00  0.00000000E+00  0.00000000E+00
  0.00000000E+00  0.00000000E+00  0.00000000E+00
  0.00000000E+00  0.00000000E+00  0.00000000E+00
  0.00000000E+00  0.00000000E+00  0.00000000E+00
  0.00000000E+00  0.00000000E+00  0.00000000E+00
  0.00000000E+00  0.00000000E+00  0.00000000E+00
  0.00000000E+00  0.00000000E+00  0.00000000E+00
  0.00000000E+00  0.00000000E+00  0.00000000E+00
  0.00000000E+00  0.00000000E+00  0.00000000E+00
  0.00000000E+00  0.00000000E+00  0.00000000E+00
  0.00000000E+00  0.00000000E+00  0.00000000E+00
  0.00000000E+00  0.00000000E+00  0.00000000E+00
  0.00000000E+00  0.00000000E+00  0.00000000E+00
  0.00000000E+00  0.00000000E+00  0.00000000E+00
  0.00000000E+00  0.00000000E+00  0.00000000E+00
  0.00000000E+00  0.00000000E+00  0.00000000E+00
  0.00000000E+00  0.00000000E+00  0.00000000E+00
  0.00000000E+00  0.00000000E+00  0.00000000E+00
  0.00000000E+00  0.00000000E+00  0.00000000E+00
  0.00000000E+00  0.00000000E+00  0.00000000E+00
  0.00000000E+00  0.00000000E+00  0.00000000E+00
  0.00000000E+00  0.00000000E+00  0.00000000E+00
  0.00000000E+00  0.00000000E+00  0.00000000E+00
  0.00000000E+00  0.00000000E+00  0.00000000E+00
  0.00000000E+00  0.00000000E+00  0.00000000E+00
  0.00000000E+00  0.00000000E+00  0.00000000E+00
  0.00000000E+00  0.00000000E+00  0.00000000E+00
  0.00000000E+00  0.00000000E+00  0.00000000E+00
  0.00000000E+00  0.00000000E+00  0.00000000E+00
  0.00000000E+00  0.00000000E+00  0.00000000E+00
  0.00000000E+00  0.00000000E+00  0.00000000E+00
  0.00000000E+00  0.00000000E+00  0.00000000E+00
  0.00000000E+00  0.00000000E+00  0.00000000E+00
  0.00000000E+00  0.00000000E+00  0.00000000E+00
  0.00000000E+00  0.00000000E+00  0.00000000E+00
  0.00000000E+00  0.00000000E+00  0.00000000E+00
  0.00000000E+00  0.00000000E+00  0.00000000E+00
  0.00000000E+00  0.00000000E+00  0.00000000E+00
  0.00000000E+00  0.00000000E+00  0.00000000E+00
  0.00000000E+00  0.00000000E+00  0.00000000E+00
  0.00000000E+00  0.00000000E+00  0.00000000E+00
  0.00000000E+00  0.00000000E+00  0.00000000E+00
  0.00000000E+00  0.00000000E+00  0.00000000E+00
  0.00000000E+00  0.00000000E+00  0.00000000E+00
  0.00000000E+00  0.00000000E+00  0.00000000E+00
  0.00000000E+00  0.00000000E+00  0.00000000E+00
  0.00000000E+00  0.00000000E+00  0.00000000E+00
  0.00000000E+00  0.00000000E+00  0.00000000E+00
  0.00000000E+00  0.00000000E+00  0.00000000E+00
  0.00000000E+00  0.00000000E+00  0.00000000E+00
  0.00000000E+00  0.00000000E+00  0.00000000E+00
  0.00000000E+00  0.00000000E+00  0.00000000E+00
  0.00000000E+00  0.00000000E+00  0.00000000E+00
  0.00000000E+00  0.00000000E+00  0.00000000E+00
  0.00000000E+00  0.00000000E+00  0.00000000E+00
  0.00000000E+00  0.00000000E+00  0.00000000E+00
  0.00000000E+00  0.00000000E+00  0.00000000E+00
  0.00000000E+00  0.00000000E+00  0.00000000E+00
  0.00000000E+00  0.00000000E+00  0.00000000E+00
  0.00000000E+00  0.00000000E+00  0.00000000E+00
  0.00000000E+00  0.00000000E+00  0.00000000E+00
  0.00000000E+00  0.00000000E+00  0.00000000E+00
  0.00000000E+00  0.00000000E+00  0.00000000E+00
  0.00000000E+00  0.00000000E+00  0.00000000E+00
  0.00000000E+00  0.00000000E+00  0.00000000E+00
  0.00000000E+00  0.00000000E+00  0.00000000E+00
  0.00000000E+00  0.00000000E+00  0.00000000E+00
  0.00000000E+00  0.00000000E+00  0.00000000E+00
  0.00000000E+00  0.00000000E+00  0.00000000E+00
  0.00000000E+00  0.00000000E+00  0.00000000E+00
  0.00000000E+00  0.00000000E+00  0.00000000E+00
  0.00000000E+00  0.00000000E+00  0.00000000E+00
  0.00000000E+00  0.00000000E+00  0.00000000E+00
  0.00000000E+00  0.00000000E+00  0.00000000E+00
  0.00000000E+00  0.00000000E+00  0.00000000E+00
  0.00000000E+00  0.00000000E+00  0.00000000E+00
  0.00000000E+00  0.00000000E+00  0.00000000E+00
  0.00000000E+00  0.00000000E+00  0.00000000E+00
  0.00000000E+00  0.00000000E+00  0.00000000E+00
  0.00000000E+00  0.00000000E+00  0.00000000E+00
  0.00000000E+00  0.00000000E+00  0.00000000E+00
  0.00000000E+00  0.00000000E+00  0.00000000E+00
  0.00000000E+00  0.00000000E+00  0.00000000E+00
  0.00000000E+00  0.00000000E+00  0.00000000E+00
  0.00000000E+00  0.00000000E+00  0.00000000E+00
  0.00000000E+00  0.00000000E+00  0.00000000E+00
  0.00000000E+00  0.00000000E+00  0.00000000E+00
  0.00000000E+00  0.00000000E+00  0.00000000E+00
  0.00000000E+00  0.00000000E+00  0.00000000E+00
  0.00000000E+00  0.00000000E+00  0.00000000E+00
  0.00000000E+00  0.00000000E+00  0.00000000E+00
  0.00000000E+00  0.00000000E+00  0.00000000E+00
  0.00000000E+00  0.00000000E+00  0.00000000E+00
  0.00000000E+00  0.00000000E+00  0.00000000E+00
  0.00000000E+00  0.00000000E+00  0.00000000E+00
  0.00000000E+00  0.00000000E+00  0.00000000E+00
  0.00000000E+00  0.00000000E+00  0.00000000E+00
  0.00000000E+00  0.00000000E+00  0.00000000E+00
  0.00000000E+00  0.00000000E+00  0.00000000E+00
