 C  N Fe  O  H                          
   1.00000000000000     
    12.4758271799999996    0.0000000000000000    0.0000000000000000
     0.0000000000000000   12.7377722799999997    0.0000000000000000
     0.0000000000000000    0.0000000000000000   30.0000000000000000
   C    N    Fe   O    H 
    54     4     1    46    91
Direct
  0.1137302101572704  0.1570034591290656  0.1012991586862566
  0.2140669470408013  0.2119129097272388  0.1004658449355673
  0.2134615876517699  0.3229372955588096  0.0985901077178840
  0.1137109027270536  0.3780386864460132  0.0979088175004927
  0.3149168051234384  0.1575516611437115  0.1020252596286471
  0.4149311145025385  0.2137505136186198  0.1025366482845167
  0.4137275851769242  0.3258979711276874  0.1016537574883600
  0.3125203857241131  0.3786149743695690  0.0991855042269662
  0.5151654616617053  0.1583547617005600  0.1042312471504734
  0.6136737447652879  0.2175757872308038  0.1054499833511643
  0.6136996114807758  0.3320516188224306  0.1068286731396117
  0.5112122140605918  0.3867775528617967  0.1047711287813531
  0.7123126910034993  0.1583148519264633  0.1050612390896537
  0.8125487824246032  0.2138155408877189  0.1037279774627675
  0.8139405047436895  0.3259458867948231  0.1037872067504225
  0.7164702059320427  0.3867632456762072  0.1077756924075329
  0.9125420319862103  0.1575455561665549  0.1027551250847931
  0.0133080128662844  0.2118811381452892  0.1009708324885740
  0.0140810870282868  0.3228450713018083  0.0993854565695797
  0.9150749402088608  0.3784823683823210  0.1011944179784042
  0.1136890888096438  0.4893836034848095  0.0977122383663349
  0.2115856274335136  0.5457776979273818  0.0979998044785969
  0.2115727193682620  0.6571198440791088  0.0991115001056119
  0.1136885389837451  0.7134349267906995  0.1001594069471312
  0.3099769812911057  0.4898199085321904  0.0989281680546351
  0.4068847643061234  0.5452748790939682  0.1018103614103493
  0.4065299906069043  0.6577262600206464  0.1031892385069335
  0.3098774453074363  0.7131938936207127  0.1009903961053663
  0.8211035310168158  0.5449460780079737  0.1059253593079941
  0.8209639355923084  0.6573485747853248  0.1055108581901064
  0.9176105303316502  0.4895863629282458  0.1013845824106533
  0.0158358052397814  0.5456502630460756  0.0992066920137573
  0.0158342663290953  0.6569805022266055  0.1004520799403897
  0.9175896513216802  0.7130348761818206  0.1029236649390843
  0.1135848494426027  0.8248417027500918  0.1020208423109244
  0.2132695029404831  0.8801392374839887  0.1026364986765606
  0.1135535841284601  0.0462594166625537  0.1027010601484547
  0.3122280950257986  0.8244967914401082  0.1026044495465414
  0.4134896868514393  0.8772609910552767  0.1039507468205235
  0.4148500561016936  0.9894157713769172  0.1037492658747879
  0.3147865282007365  0.0457355633046720  0.1030679255196424
  0.5110191439686471  0.8164842202531327  0.1068203028203183
  0.6136858277765460  0.8711623177786980  0.1071364091656662
  0.6138161132301611  0.9857162279837963  0.1053344675503746
  0.5151219139529277  0.0450246020439134  0.1044021000230006
  0.7161467772619639  0.8165259420477318  0.1071665218047964
  0.8136643809352115  0.8772050947144635  0.1049148228831078
  0.8125176569536927  0.9894933282571446  0.1045284064310454
  0.7123420696507639  0.0449874232816441  0.1050349898711815
  0.9149846385462909  0.8243795987763216  0.1036204600006154
  0.0138951299964159  0.8801173438213581  0.1030516782012326
  0.9124475875490935  0.0457761491838248  0.1036386395367066
  0.2139603333621653  0.9913150198285960  0.1030248295111535
  0.0132637382573304  0.9913510277691647  0.1033197031873941
  0.5045411381561228  0.4949925259423172  0.1053234298607826
  0.5043783567621994  0.7080653661239846  0.1090962985919436
  0.7234328750747968  0.4948735983743026  0.1115607703509501
  0.7226824734286844  0.7076687203519326  0.1086215149470271
  0.6127961336475672  0.6041330884321736  0.1221654724350571
  0.5978219789989270  0.6108342188709207  0.1843872194211208
  0.7884471750721079  0.0572493711128333  0.3162312013126168
  0.2603411994627861  0.1397532920445608  0.4532675203082563
  0.7142232166272058  0.4761528967695996  0.2459525880150033
  0.7084499850338706  0.7643788350785429  0.2849930864038168
  0.5738469839065639  0.0575953927429361  0.3421073021587374
  0.5684032913100776  0.3537860441437053  0.4505713631155883
  0.1036069213221790  0.3805505314056208  0.2829902169206057
  0.9576394721685002  0.3170823514915508  0.2001994563982205
  0.8185129807736712  0.7644329622269118  0.3890678410461282
  0.3139447404411053  0.7784856783492597  0.2792534101145049
  0.0733643063283394  0.0632199243220068  0.2708611740484483
  0.1213231664950872  0.7319005756809915  0.2217404647887081
  0.3834088909381757  0.4355591008389378  0.2943651033750673
  0.2941292947076508  0.5749282730221660  0.4313797149397775
  0.4264603149679207  0.4591115057369786  0.5304164456213981
  0.0606081569727308  0.8591956123051445  0.3253112993185908
  0.9439240342865013  0.2214264717318840  0.3068346476828201
  0.6242199018607228  0.2820650046564656  0.2168617360842205
  0.4545018201004574  0.8667657594572719  0.3557870799278683
  0.9253014100230358  0.7185268382461555  0.2732391253799086
  0.9199310941277495  0.5035476707516138  0.2841297608518709
  0.4978571853086288  0.1328467302339647  0.2599237316854988
  0.5957978338112467  0.9767566521869308  0.2103771579003619
  0.6259514825110638  0.5638797356353583  0.4432355345242651
  0.1235090694226777  0.1019863867571142  0.3764994947276872
  0.4721958650093062  0.6624511578822386  0.4897535561710071
  0.2792243359890318  0.1359885477176473  0.2298237283066899
  0.5642288294502645  0.0411368485558871  0.5596222873097679
  0.8217419955342579  0.9795994212713012  0.2319062121960839
  0.6591047287754307  0.3106263105694365  0.3679797676736302
  0.8768170417656156  0.4156204845140894  0.3680526597193431
  0.5814617171242203  0.8446461372332197  0.5106464033407866
  0.9196922271776290  0.9687329071720243  0.3811368530311752
  0.5115095511157763  0.7658592604027979  0.2331718504079689
  0.6009806148766222  0.6915772067835281  0.3673808846868902
  0.6655487862414616  0.1856163096542301  0.4954966994264480
  0.2092117636183572  0.6719033706864894  0.3476257655287954
  0.8546641813091747  0.5838123310330747  0.4333657073910227
  0.4204700430076744  0.4120578668555760  0.2039903272609793
  0.2434725862693249  0.2750226180916322  0.3443505630488166
  0.6171099444849925  0.0085494174326721  0.4387567111177822
  0.5916980691585536  0.4857558085383025  0.3222769356350033
  0.2181155668087315  0.3309565134689503  0.2054142800969794
  0.3912695624385276  0.9602321350302238  0.4332436183485512
  0.3355059826423794  0.3599596591401723  0.4237367111801981
  0.6524629933729901  0.5720582162553423  0.2015202777964917
  0.8248732502538875  0.1256689954310422  0.3128785248142469
  0.8014289273903386  0.0218573870482585  0.2869685657663745
  0.2825292328863548  0.2119247064297245  0.4467800047270402
  0.2050068103696347  0.1244520437450335  0.4308153987093487
  0.6991129374573344  0.4036892414970382  0.2363999732791978
  0.7897364644729421  0.4797146281565399  0.2560696033145871
  0.6431109192129846  0.7627013561209991  0.2665225844353424
  0.6858932511272610  0.7333107283674232  0.3132499960370783
  0.5380705475124054  0.9879997231123984  0.3430323092361814
  0.6482369406506860  0.0464099372974514  0.3313250928752901
  0.5967506920818358  0.3295479560024734  0.4213343831695333
  0.5918981451315996  0.4286552276957605  0.4510571395978947
  0.0539717309706515  0.3204061625696596  0.2834091391097872
  0.0524659462878619  0.4401835576918122  0.2830864577295403
  0.0349095524865947  0.3258981058027091  0.1965431003421627
  0.9402592595337681  0.3624779783716103  0.2253184699432370
  0.8421091011014504  0.8362389883032733  0.3954511990866796
  0.7409477078911629  0.7662639081909564  0.3838710893679030
  0.2528111494137065  0.7733047990331496  0.2586906919206596
  0.3788530579806474  0.7643068476664410  0.2611999348714490
  0.1445672489810551  0.0824693434568450  0.2593900338821405
  0.0800338477995382 -0.0077523903403045  0.2831658309578142
  0.1127183022041289  0.7467887942213344  0.1901654426703100
  0.0479401731265311  0.7311881066340941  0.2339752670405040
  0.4535905758197060  0.4523188708313395  0.3079295902002238
  0.3585052314092745  0.3707838988097767  0.3084997013752712
  0.3470286286309309  0.6175752418249193  0.4474180878153933
  0.2742066075128465  0.6148534486201440  0.4045842380749355
  0.3497800986174305  0.4458252471779482  0.5282247900487635
  0.4575433853519322  0.4132035825250132  0.5077714415625663
  0.0125491640652872  0.8867306380194491  0.3488842157403978
  0.1053970609041173  0.8042199548705378  0.3387206238591318
  0.9946539430067685  0.1628724247447831  0.3008128456810756
  0.9580081309193950  0.2463066816795608  0.3370344566741004
  0.6603767220196728  0.2419780143371832  0.1937426735621002
  0.5830470556187576  0.2300899215218821  0.2346291852835898
  0.3988083388818005  0.8509324613092605  0.3337826476751945
  0.4178619985138478  0.8977421328008753  0.3824876682995091
  0.9600671609528248  0.7673423097732223  0.2942852741424410
  0.8485234046546097  0.7394272852579871  0.2727479858855802
  0.9237273586646101  0.5819282651750857  0.2837900411455094
  0.9006435347951676  0.4813319603984668  0.3149021056274727
  0.5105995673328610  0.1121279642013983  0.2914042780765588
  0.4196624381913354  0.1374872213767841  0.2545505944347430
  0.5573745804567376  0.0300864895001081  0.2287406491387678
  0.5796639243835521 -0.0047329396641435  0.1795935606801274
  0.7018372221318003  0.5767700181284543  0.4502909313147666
  0.5792775802316237  0.6041984840291392  0.4644785335917187
  0.1633296599755260  0.1604506114430049  0.3620205326305800
  0.1422864857020121  0.0399211111053821  0.3591406211896527
  0.4568288258952846  0.6137871164818208  0.5142574849552778
  0.4986374556252512  0.7302300515570643  0.5021465209360978
  0.2820836172104105  0.0975213284774161  0.2018003583477224
  0.2560731419989188  0.2092602888304319  0.2208899445591375
  0.4929331539869574  0.0673852764528697  0.5665455155943271
  0.5961320563675910  0.0953176376164744  0.5404224341370012
  0.8629793223847458  0.0340702058858294  0.2168959898936368
  0.7483712072005495  0.9818611767157674  0.2196423718468801
  0.6302150324643078  0.3708468050744927  0.3502973620785437
  0.6344930499283823  0.2462638989995778  0.3536613547846691
  0.8081945194365348  0.3780703471903034  0.3688727215682363
  0.8717183508541513  0.4697018698684714  0.3915291274910654
  0.5977551225461294  0.8804958474333109  0.4826237180337286
  0.5683873737586965  0.9034023276361314  0.5313065780631735
  0.8715210752656540 -0.0000126613859441  0.3582284467689802
  0.9673433542725589  0.0256678338808797  0.3903267514630926
  0.5323089084493426  0.8335791404829639  0.2201808558669388
  0.5376968573292049  0.7092366112595070  0.2124823421148576
  0.5996311228867730  0.6520361399364907  0.3958526880837357
  0.5416102585552884  0.7429912563484196  0.3673750097454184
  0.6338931649984360  0.2515460662066574  0.4835454824947492
  0.7406664379069974  0.2010055168507759  0.5011722097788488
  0.1810559495590488  0.6072542449392153  0.3347965912262877
  0.2589663284815280  0.6986978960270745  0.3243424053269787
  0.8498766272020105  0.6539049712408346  0.4181922052897516
  0.9119491233478896  0.5906965626314659  0.4551535437094220
  0.4141322375425471  0.4257327524385409  0.2365340204803963
  0.4870370207262002  0.3721371523393261  0.2010852674629969
  0.2724305688798134  0.3086560332110660  0.3716075572458556
  0.1953324101181799  0.3262099999691873  0.3300304296349542
  0.6116499107693540  0.0333361134889051  0.4078624969981897
  0.6389719037699940  0.0700481576795459  0.4564336425762276
  0.5926052771275926  0.5560980645881048  0.3359038713759527
  0.6349901409272177  0.4904959706977211  0.2943462747511434
  0.1903074445704937  0.3632376075881674  0.2330704202589098
  0.2903022505901068  0.3628593613538615  0.2004437126844565
  0.3478843370224020  0.0236579203607542  0.4391707961099105
  0.4642859124912445  0.9797446117307019  0.4424120427269108
  0.4131584304244652  0.3552683639677822  0.4287809621310640
  0.3191770023388659  0.4362822371355765  0.4262793231512361
 
  0.00000000E+00  0.00000000E+00  0.00000000E+00
  0.00000000E+00  0.00000000E+00  0.00000000E+00
  0.00000000E+00  0.00000000E+00  0.00000000E+00
  0.00000000E+00  0.00000000E+00  0.00000000E+00
  0.00000000E+00  0.00000000E+00  0.00000000E+00
  0.00000000E+00  0.00000000E+00  0.00000000E+00
  0.00000000E+00  0.00000000E+00  0.00000000E+00
  0.00000000E+00  0.00000000E+00  0.00000000E+00
  0.00000000E+00  0.00000000E+00  0.00000000E+00
  0.00000000E+00  0.00000000E+00  0.00000000E+00
  0.00000000E+00  0.00000000E+00  0.00000000E+00
  0.00000000E+00  0.00000000E+00  0.00000000E+00
  0.00000000E+00  0.00000000E+00  0.00000000E+00
  0.00000000E+00  0.00000000E+00  0.00000000E+00
  0.00000000E+00  0.00000000E+00  0.00000000E+00
  0.00000000E+00  0.00000000E+00  0.00000000E+00
  0.00000000E+00  0.00000000E+00  0.00000000E+00
  0.00000000E+00  0.00000000E+00  0.00000000E+00
  0.00000000E+00  0.00000000E+00  0.00000000E+00
  0.00000000E+00  0.00000000E+00  0.00000000E+00
  0.00000000E+00  0.00000000E+00  0.00000000E+00
  0.00000000E+00  0.00000000E+00  0.00000000E+00
  0.00000000E+00  0.00000000E+00  0.00000000E+00
  0.00000000E+00  0.00000000E+00  0.00000000E+00
  0.00000000E+00  0.00000000E+00  0.00000000E+00
  0.00000000E+00  0.00000000E+00  0.00000000E+00
  0.00000000E+00  0.00000000E+00  0.00000000E+00
  0.00000000E+00  0.00000000E+00  0.00000000E+00
  0.00000000E+00  0.00000000E+00  0.00000000E+00
  0.00000000E+00  0.00000000E+00  0.00000000E+00
  0.00000000E+00  0.00000000E+00  0.00000000E+00
  0.00000000E+00  0.00000000E+00  0.00000000E+00
  0.00000000E+00  0.00000000E+00  0.00000000E+00
  0.00000000E+00  0.00000000E+00  0.00000000E+00
  0.00000000E+00  0.00000000E+00  0.00000000E+00
  0.00000000E+00  0.00000000E+00  0.00000000E+00
  0.00000000E+00  0.00000000E+00  0.00000000E+00
  0.00000000E+00  0.00000000E+00  0.00000000E+00
  0.00000000E+00  0.00000000E+00  0.00000000E+00
  0.00000000E+00  0.00000000E+00  0.00000000E+00
  0.00000000E+00  0.00000000E+00  0.00000000E+00
  0.00000000E+00  0.00000000E+00  0.00000000E+00
  0.00000000E+00  0.00000000E+00  0.00000000E+00
  0.00000000E+00  0.00000000E+00  0.00000000E+00
  0.00000000E+00  0.00000000E+00  0.00000000E+00
  0.00000000E+00  0.00000000E+00  0.00000000E+00
  0.00000000E+00  0.00000000E+00  0.00000000E+00
  0.00000000E+00  0.00000000E+00  0.00000000E+00
  0.00000000E+00  0.00000000E+00  0.00000000E+00
  0.00000000E+00  0.00000000E+00  0.00000000E+00
  0.00000000E+00  0.00000000E+00  0.00000000E+00
  0.00000000E+00  0.00000000E+00  0.00000000E+00
  0.00000000E+00  0.00000000E+00  0.00000000E+00
  0.00000000E+00  0.00000000E+00  0.00000000E+00
  0.00000000E+00  0.00000000E+00  0.00000000E+00
  0.00000000E+00  0.00000000E+00  0.00000000E+00
  0.00000000E+00  0.00000000E+00  0.00000000E+00
  0.00000000E+00  0.00000000E+00  0.00000000E+00
  0.00000000E+00  0.00000000E+00  0.00000000E+00
  0.00000000E+00  0.00000000E+00  0.00000000E+00
  0.00000000E+00  0.00000000E+00  0.00000000E+00
  0.00000000E+00  0.00000000E+00  0.00000000E+00
  0.00000000E+00  0.00000000E+00  0.00000000E+00
  0.00000000E+00  0.00000000E+00  0.00000000E+00
  0.00000000E+00  0.00000000E+00  0.00000000E+00
  0.00000000E+00  0.00000000E+00  0.00000000E+00
  0.00000000E+00  0.00000000E+00  0.00000000E+00
  0.00000000E+00  0.00000000E+00  0.00000000E+00
  0.00000000E+00  0.00000000E+00  0.00000000E+00
  0.00000000E+00  0.00000000E+00  0.00000000E+00
  0.00000000E+00  0.00000000E+00  0.00000000E+00
  0.00000000E+00  0.00000000E+00  0.00000000E+00
  0.00000000E+00  0.00000000E+00  0.00000000E+00
  0.00000000E+00  0.00000000E+00  0.00000000E+00
  0.00000000E+00  0.00000000E+00  0.00000000E+00
  0.00000000E+00  0.00000000E+00  0.00000000E+00
  0.00000000E+00  0.00000000E+00  0.00000000E+00
  0.00000000E+00  0.00000000E+00  0.00000000E+00
  0.00000000E+00  0.00000000E+00  0.00000000E+00
  0.00000000E+00  0.00000000E+00  0.00000000E+00
  0.00000000E+00  0.00000000E+00  0.00000000E+00
  0.00000000E+00  0.00000000E+00  0.00000000E+00
  0.00000000E+00  0.00000000E+00  0.00000000E+00
  0.00000000E+00  0.00000000E+00  0.00000000E+00
  0.00000000E+00  0.00000000E+00  0.00000000E+00
  0.00000000E+00  0.00000000E+00  0.00000000E+00
  0.00000000E+00  0.00000000E+00  0.00000000E+00
  0.00000000E+00  0.00000000E+00  0.00000000E+00
  0.00000000E+00  0.00000000E+00  0.00000000E+00
  0.00000000E+00  0.00000000E+00  0.00000000E+00
  0.00000000E+00  0.00000000E+00  0.00000000E+00
  0.00000000E+00  0.00000000E+00  0.00000000E+00
  0.00000000E+00  0.00000000E+00  0.00000000E+00
  0.00000000E+00  0.00000000E+00  0.00000000E+00
  0.00000000E+00  0.00000000E+00  0.00000000E+00
  0.00000000E+00  0.00000000E+00  0.00000000E+00
  0.00000000E+00  0.00000000E+00  0.00000000E+00
  0.00000000E+00  0.00000000E+00  0.00000000E+00
  0.00000000E+00  0.00000000E+00  0.00000000E+00
  0.00000000E+00  0.00000000E+00  0.00000000E+00
  0.00000000E+00  0.00000000E+00  0.00000000E+00
  0.00000000E+00  0.00000000E+00  0.00000000E+00
  0.00000000E+00  0.00000000E+00  0.00000000E+00
  0.00000000E+00  0.00000000E+00  0.00000000E+00
  0.00000000E+00  0.00000000E+00  0.00000000E+00
  0.00000000E+00  0.00000000E+00  0.00000000E+00
  0.00000000E+00  0.00000000E+00  0.00000000E+00
  0.00000000E+00  0.00000000E+00  0.00000000E+00
  0.00000000E+00  0.00000000E+00  0.00000000E+00
  0.00000000E+00  0.00000000E+00  0.00000000E+00
  0.00000000E+00  0.00000000E+00  0.00000000E+00
  0.00000000E+00  0.00000000E+00  0.00000000E+00
  0.00000000E+00  0.00000000E+00  0.00000000E+00
  0.00000000E+00  0.00000000E+00  0.00000000E+00
  0.00000000E+00  0.00000000E+00  0.00000000E+00
  0.00000000E+00  0.00000000E+00  0.00000000E+00
  0.00000000E+00  0.00000000E+00  0.00000000E+00
  0.00000000E+00  0.00000000E+00  0.00000000E+00
  0.00000000E+00  0.00000000E+00  0.00000000E+00
  0.00000000E+00  0.00000000E+00  0.00000000E+00
  0.00000000E+00  0.00000000E+00  0.00000000E+00
  0.00000000E+00  0.00000000E+00  0.00000000E+00
  0.00000000E+00  0.00000000E+00  0.00000000E+00
  0.00000000E+00  0.00000000E+00  0.00000000E+00
  0.00000000E+00  0.00000000E+00  0.00000000E+00
  0.00000000E+00  0.00000000E+00  0.00000000E+00
  0.00000000E+00  0.00000000E+00  0.00000000E+00
  0.00000000E+00  0.00000000E+00  0.00000000E+00
  0.00000000E+00  0.00000000E+00  0.00000000E+00
  0.00000000E+00  0.00000000E+00  0.00000000E+00
  0.00000000E+00  0.00000000E+00  0.00000000E+00
  0.00000000E+00  0.00000000E+00  0.00000000E+00
  0.00000000E+00  0.00000000E+00  0.00000000E+00
  0.00000000E+00  0.00000000E+00  0.00000000E+00
  0.00000000E+00  0.00000000E+00  0.00000000E+00
  0.00000000E+00  0.00000000E+00  0.00000000E+00
  0.00000000E+00  0.00000000E+00  0.00000000E+00
  0.00000000E+00  0.00000000E+00  0.00000000E+00
  0.00000000E+00  0.00000000E+00  0.00000000E+00
  0.00000000E+00  0.00000000E+00  0.00000000E+00
  0.00000000E+00  0.00000000E+00  0.00000000E+00
  0.00000000E+00  0.00000000E+00  0.00000000E+00
  0.00000000E+00  0.00000000E+00  0.00000000E+00
  0.00000000E+00  0.00000000E+00  0.00000000E+00
  0.00000000E+00  0.00000000E+00  0.00000000E+00
  0.00000000E+00  0.00000000E+00  0.00000000E+00
  0.00000000E+00  0.00000000E+00  0.00000000E+00
  0.00000000E+00  0.00000000E+00  0.00000000E+00
  0.00000000E+00  0.00000000E+00  0.00000000E+00
  0.00000000E+00  0.00000000E+00  0.00000000E+00
  0.00000000E+00  0.00000000E+00  0.00000000E+00
  0.00000000E+00  0.00000000E+00  0.00000000E+00
  0.00000000E+00  0.00000000E+00  0.00000000E+00
  0.00000000E+00  0.00000000E+00  0.00000000E+00
  0.00000000E+00  0.00000000E+00  0.00000000E+00
  0.00000000E+00  0.00000000E+00  0.00000000E+00
  0.00000000E+00  0.00000000E+00  0.00000000E+00
  0.00000000E+00  0.00000000E+00  0.00000000E+00
  0.00000000E+00  0.00000000E+00  0.00000000E+00
  0.00000000E+00  0.00000000E+00  0.00000000E+00
  0.00000000E+00  0.00000000E+00  0.00000000E+00
  0.00000000E+00  0.00000000E+00  0.00000000E+00
  0.00000000E+00  0.00000000E+00  0.00000000E+00
  0.00000000E+00  0.00000000E+00  0.00000000E+00
  0.00000000E+00  0.00000000E+00  0.00000000E+00
  0.00000000E+00  0.00000000E+00  0.00000000E+00
  0.00000000E+00  0.00000000E+00  0.00000000E+00
  0.00000000E+00  0.00000000E+00  0.00000000E+00
  0.00000000E+00  0.00000000E+00  0.00000000E+00
  0.00000000E+00  0.00000000E+00  0.00000000E+00
  0.00000000E+00  0.00000000E+00  0.00000000E+00
  0.00000000E+00  0.00000000E+00  0.00000000E+00
  0.00000000E+00  0.00000000E+00  0.00000000E+00
  0.00000000E+00  0.00000000E+00  0.00000000E+00
  0.00000000E+00  0.00000000E+00  0.00000000E+00
  0.00000000E+00  0.00000000E+00  0.00000000E+00
  0.00000000E+00  0.00000000E+00  0.00000000E+00
  0.00000000E+00  0.00000000E+00  0.00000000E+00
  0.00000000E+00  0.00000000E+00  0.00000000E+00
  0.00000000E+00  0.00000000E+00  0.00000000E+00
  0.00000000E+00  0.00000000E+00  0.00000000E+00
  0.00000000E+00  0.00000000E+00  0.00000000E+00
  0.00000000E+00  0.00000000E+00  0.00000000E+00
  0.00000000E+00  0.00000000E+00  0.00000000E+00
  0.00000000E+00  0.00000000E+00  0.00000000E+00
  0.00000000E+00  0.00000000E+00  0.00000000E+00
  0.00000000E+00  0.00000000E+00  0.00000000E+00
  0.00000000E+00  0.00000000E+00  0.00000000E+00
  0.00000000E+00  0.00000000E+00  0.00000000E+00
  0.00000000E+00  0.00000000E+00  0.00000000E+00
  0.00000000E+00  0.00000000E+00  0.00000000E+00
  0.00000000E+00  0.00000000E+00  0.00000000E+00
  0.00000000E+00  0.00000000E+00  0.00000000E+00
  0.00000000E+00  0.00000000E+00  0.00000000E+00
  0.00000000E+00  0.00000000E+00  0.00000000E+00
  0.00000000E+00  0.00000000E+00  0.00000000E+00
