 C  N Fe  O  H                          
   1.00000000000000     
    12.4758271799999996    0.0000000000000000    0.0000000000000000
     0.0000000000000000   12.7377722799999997    0.0000000000000000
     0.0000000000000000    0.0000000000000000   30.0000000000000000
   C    N    Fe   O    H 
    54     4     1    47    91
Direct
  0.1119919163903640  0.1571372444969309  0.1019381551458185
  0.2125348425792155  0.2122896568963689  0.1010825658610140
  0.2119440739240661  0.3233991259479597  0.0998783017290076
  0.1120158530187605  0.3785771477879552  0.0999415139836370
  0.3132153727703667  0.1578682504453614  0.1020952867402676
  0.4134304314873347  0.2141744220333557  0.1024978003363729
  0.4122375660101843  0.3260792701374775  0.1020760043860023
  0.3110535507209014  0.3789994969361365  0.1003591943761201
  0.5135907169734361  0.1583182304645718  0.1038067167089866
  0.6120302746117322  0.2174672857417458  0.1052174011073616
  0.6119613528111292  0.3315295736164015  0.1067542595197095
  0.5099927448216875  0.3870564287324961  0.1051823242897407
  0.7105582870176022  0.1581917909418437  0.1049958992373369
  0.8107725235355562  0.2140374356311034  0.1044574159266107
  0.8118940657845506  0.3259863605336703  0.1049899070391303
  0.7139851060466812  0.3868490148674000  0.1078345025995527
  0.9109096736997889  0.1577366544968841  0.1034901204340613
  0.0114896810066079  0.2121874707933285  0.1020097872218111
  0.0121212658438420  0.3233720138389450  0.1012237918466134
  0.9130916144816384  0.3789772706165991  0.1032750143550621
  0.1120062532185580  0.4895838454416813  0.1003405751740339
  0.2101943337390262  0.5459933901688836  0.1000796377854667
  0.2101428844952760  0.6571779412358463  0.1009958825293772
  0.1120254810996696  0.7136064105990583  0.1023537712664128
  0.3089590075439349  0.4903438216381286  0.1003007277798246
  0.4063418516479763  0.5457585642827605  0.1023571477432895
  0.4062230884325956  0.6576446320965115  0.1019316391390925
  0.3087778211176191  0.7129766162452084  0.1012642231230518
  0.8178991491482449  0.5457699110504237  0.1072759747496194
  0.8179078273802043  0.6575039859220136  0.1068448730810592
  0.9151447289033660  0.4903177506126087  0.1039743673824631
  0.0138737892244988  0.5459722445000690  0.1022054316666483
  0.0138664475847963  0.6571507188837894  0.1030687119268634
  0.9152466503113287  0.7128925221921313  0.1047840493343342
  0.1120076604453165  0.8247338926869914  0.1033616798258100
  0.2118793463229713  0.8800694142397892  0.1030976081298148
  0.1119715646288666  0.0464619137298542  0.1031566647268051
  0.3109033397444548  0.8244058468498110  0.1023952098438883
  0.4120458107540894  0.8776179024277636  0.1029084426150391
  0.4133009608267455  0.9894889704312807  0.1031094073464926
  0.3131747340998117  0.0458838876204699  0.1029222462215007
  0.5099240279093690  0.8165719143802737  0.1042631892819967
  0.6120467300187838  0.8718727733124386  0.1055501749874135
  0.6121551117512971  0.9859538487218212  0.1042815587914803
  0.5135922527747520  0.0453539646664376  0.1035488745303633
  0.7140022046792730  0.8165064927841704  0.1066985034388642
  0.8119179321438919  0.8774805033330232  0.1052756950608030
  0.8107600671754804  0.9894183331424264  0.1046411415600504
  0.7106295040356257  0.0452248542213347  0.1046252837367629
  0.9131156410544629  0.8243656371817223  0.1048921689210936
  0.0121233695676812  0.8800457153897752  0.1042086989776098
  0.9108830510844864  0.0458170566991676  0.1040934137283606
  0.2125035423234998  0.9913316104368673  0.1032252457188036
  0.0115070049030513  0.9913031220357337  0.1039571539218123
  0.5039151035913899  0.4946054860777174  0.1065315519981535
  0.5037571121896657  0.7092698995386502  0.1046593863363179
  0.7199950958274525  0.4944414392326079  0.1108687393939399
  0.7200267494713714  0.7090417044022437  0.1088751844240251
  0.6104535705563631  0.6024071551304253  0.1217309825075322
  0.7836449990037893  0.0575988332222377  0.3169863187829879
  0.2613301197594967  0.1398959765108618  0.4533399710394870
  0.7366441116997009  0.4545290253204769  0.2549654052475795
  0.6834133491620946  0.7298957390443879  0.2793268740477061
  0.5711127533754730  0.0589034923316850  0.3425003877839780
  0.5690153767085439  0.3535545991185844  0.4524493559959064
  0.1086739086407236  0.3768595695670713  0.2827026570919896
  0.9709972915267352  0.2984591642592491  0.2057107108033058
  0.8168262328908328  0.7668896110786908  0.3870550135882350
  0.3044033902923678  0.7866357640493323  0.2805402296395808
  0.0696546639610452  0.0647824935426192  0.2687219819225497
  0.1180727477178068  0.7295647431709225  0.2230329992115614
  0.3870280033418139  0.4347808715432148  0.2925875270177434
  0.2916505194838159  0.5731498730300006  0.4320140552510510
  0.4272068478482275  0.4596968968196999  0.5309971028281611
  0.0554541579845091  0.8589383703131530  0.3254365224112443
  0.9317507935175057  0.2190004686854421  0.3090207333816497
  0.6282715628552579  0.2787394170761271  0.2156612093834120
  0.4515451968970726  0.8669422236494513  0.3566216590071470
  0.9205206986146477  0.7208791315440735  0.2738713370917245
  0.9370310752959409  0.5068228749265755  0.2911056605955363
  0.4949879179007681  0.1395678325938626  0.2615067851997760
  0.6032147511107252  1.0024862483115797  0.2087865256978768
  0.6260390570474776  0.5648058878812759  0.4426272363686818
  0.1260451336518980  0.0970024053701765  0.3765480098817701
  0.4722205859922002  0.6619088567361143  0.4896782359181687
  0.2787132693367948  0.1371722890928075  0.2295129017340906
  0.5662596105866143  0.0427462165786692  0.5602450423076537
  0.8262205004065163  0.9794511185998157  0.2329394084277317
  0.6605837081187801  0.3055680543868378  0.3710436776739915
  0.8788745223015508  0.4160446524338218  0.3717239584279323
  0.5803094880721169  0.8448525012636193  0.5116320800966999
  0.9200001580814194  0.9727473890051986  0.3814198287935712
  0.4973775607533033  0.8101532949038452  0.2298398585535596
  0.6004399823094746  0.6964035869241856  0.3681769360087402
  0.6700690351426695  0.1845368406259252  0.4957127827336921
  0.2052224219423019  0.6676265244517720  0.3478108903298380
  0.8545038678171849  0.5881604698463195  0.4334035661944736
  0.4239267801482469  0.4030973340409653  0.2017188453814937
  0.2440209699061890  0.2693850383881914  0.3431165892430026
  0.6182218945829121  0.0083540253170261  0.4391685547969765
  0.5971607605049922  0.4768402122381017  0.3228529068771519
  0.2204753105383269  0.3328322837728537  0.2045093006324921
  0.3924481674540141  0.9612394946278850  0.4338172119138596
  0.3353841698622446  0.3583342380120075  0.4232745385705549
  0.6006671625739294  0.6516435954939621  0.1842969439471902
  0.5714035877429983  0.5817146245889387  0.2202528630857599
  0.8225311956652823  0.1256335626099906  0.3153940660485504
  0.7994039766624977  0.0240485208303412  0.2876509053701342
  0.2830536071906943  0.2120562562452875  0.4464773141607399
  0.2058971384341384  0.1237152612941442  0.4310430883375581
  0.7190760471157042  0.3862064365599227  0.2417084420101529
  0.8118094116727725  0.4561220018379746  0.2650133494240858
  0.6248163359091626  0.7721000245460049  0.2665462831794378
  0.6634965753603492  0.7203396051671506  0.3107040169200344
  0.5352143915002261  0.9894935163758827  0.3435720708348731
  0.6456173298052476  0.0479559851032651  0.3315924111478512
  0.5971662156941323  0.3278101133366195  0.4233664807286149
  0.5925680229700145  0.4282738120466626  0.4522174658171447
  0.0599589253611723  0.3208610743664410  0.2730201563878835
  0.0580641864093730  0.4368246196401225  0.2861541093101952
  0.0391837745054635  0.3251020627160955  0.1943487055089810
  0.9346187330703964  0.3601316397957362  0.2175044393791722
  0.8385060670116202  0.8381195436820368  0.3953571114510600
  0.7387623272400844  0.7670232905919847  0.3826988239927183
  0.2424558170381722  0.7781741721180135  0.2605646638965462
  0.3681283545938220  0.7854413183197292  0.2610688670549344
  0.1411329746270961  0.0843961757635780  0.2576448709282366
  0.0781164966269260 -0.0042355951648226  0.2826909437732680
  0.1114494261335812  0.7431006027652629  0.1912662014738522
  0.0441827304236522  0.7306255490327748  0.2346626543894051
  0.4579456300889211  0.4483433110049344  0.3060237244689946
  0.3605940692757573  0.3700800358516352  0.3062726537273187
  0.3449207112081585  0.6163925415569442  0.4475260067401947
  0.2710132569318538  0.6120769379099533  0.4050531768013997
  0.3504637817854901  0.4463841227482631  0.5292569842604530
  0.4578172140387288  0.4129331997132153  0.5085435296181614
  0.0089278733058331  0.8883084947979993  0.3492063385534424
  0.0994780786836042  0.8034923303007876  0.3388747060039348
  0.9888270842781312  0.1684050636003396  0.3010526133039352
  0.9552553476089211  0.2559340492384934  0.3357590122757607
  0.6588946066676425  0.2337332757486754  0.1927802458410977
  0.5850794777109742  0.2315884429658088  0.2348328226998785
  0.3937675190488821  0.8513012306227986  0.3355524449444596
  0.4172100149365253  0.8989143157444605  0.3837325245258085
  0.9529375517730806  0.7722173039974985  0.2945621703002516
  0.8439405648787042  0.7388791952848501  0.2717675264000508
  0.9307106647605714  0.5844896932699721  0.2884318849140112
  0.9130720393354476  0.4855705521521128  0.3214124511079947
  0.5073605569389410  0.1156991216689063  0.2926065103165844
  0.4169895567432293  0.1417343076491894  0.2553732819324561
  0.5614422147399297  0.0522519584294750  0.2279192378891871
  0.5844398245087572  0.0197106832414980  0.1781207314049437
  0.7016281657781214  0.5784648875672552  0.4499574551063327
  0.5788549686211302  0.6046143345140049  0.4638887857161560
  0.1649195963899380  0.1555601007506243  0.3616384620464130
  0.1477474067630720  0.0341149629929809  0.3603711205261438
  0.4570544020176495  0.6124072266355269  0.5139297275630835
  0.4980822412054474  0.7294040707557176  0.5024957922523613
  0.2833933584689377  0.0992233741199327  0.2014062017908717
  0.2558602701956944  0.2104698101382429  0.2205599276386061
  0.4954114444792879  0.0708430326144551  0.5666261639270008
  0.6002346596245239  0.0958119412457263  0.5410967323109770
  0.8785532659131848  0.0291964491182091  0.2212367670633974
  0.7571604763210895  0.9941200011778483  0.2183098077013259
  0.6318987119350903  0.3651247730350399  0.3528835712561640
  0.6363904015159949  0.2408841546753283  0.3568581440785921
  0.8106636592385860  0.3778341820799319  0.3714427295857166
  0.8712131518096019  0.4707878810049601  0.3948195387436733
  0.5969331393307327  0.8805946141324202  0.4836277500458290
  0.5678675218458407  0.9036782871971105  0.5323152388816235
  0.8700560835528617  0.0022340595478782  0.3588118448682018
  0.9701320974479892  0.0296483458501102  0.3882369464507548
  0.5271780195951740  0.8779020786570307  0.2200204405965874
  0.5253067244858398  0.7572474888956513  0.2085439245467347
  0.5997687353486841  0.6529736619390247  0.3956482953407666
  0.5391991225788314  0.7456757718032050  0.3690248323148587
  0.6377053038900572  0.2508636783850883  0.4845713354450721
  0.7457543270978481  0.1994099531606316  0.5002403429651276
  0.1781567272940535  0.6032898506713149  0.3343003688230163
  0.2548738494796317  0.6963269411520807  0.3250605382922989
  0.8490589331676134  0.6571274394114780  0.4173565486734058
  0.9124054601536733  0.5966641977047575  0.4548030527008468
  0.4196204115791513  0.4248295053976206  0.2334214142281309
  0.4924379168727276  0.3660579100985648  0.1997315618899689
  0.2714964645724841  0.3055593236312352  0.3699489286354156
  0.1945826329514449  0.3180083035065058  0.3277834307098229
  0.6122684873717927  0.0335521988018049  0.4083680410700147
  0.6411215664134876  0.0695281163678413  0.4568439673275618
  0.5990334577725309  0.5474762887564115  0.3357428611710412
  0.6497618538402968  0.4753088485852348  0.2974145731774502
  0.1961559374973313  0.3670120906710471  0.2322977718809882
  0.2947358195678626  0.3597913554845176  0.1991985300287675
  0.3490287079226899  0.0248205192182871  0.4395661033737258
  0.4654694424977450  0.9807189047488265  0.4430017458502196
  0.4127948358965926  0.3542874621989549  0.4288657998339696
  0.3181180874411513  0.4342917710768875  0.4263161050352648
  0.6189869955208546  0.6097969229478191  0.2439168385650316
 
  0.00000000E+00  0.00000000E+00  0.00000000E+00
  0.00000000E+00  0.00000000E+00  0.00000000E+00
  0.00000000E+00  0.00000000E+00  0.00000000E+00
  0.00000000E+00  0.00000000E+00  0.00000000E+00
  0.00000000E+00  0.00000000E+00  0.00000000E+00
  0.00000000E+00  0.00000000E+00  0.00000000E+00
  0.00000000E+00  0.00000000E+00  0.00000000E+00
  0.00000000E+00  0.00000000E+00  0.00000000E+00
  0.00000000E+00  0.00000000E+00  0.00000000E+00
  0.00000000E+00  0.00000000E+00  0.00000000E+00
  0.00000000E+00  0.00000000E+00  0.00000000E+00
  0.00000000E+00  0.00000000E+00  0.00000000E+00
  0.00000000E+00  0.00000000E+00  0.00000000E+00
  0.00000000E+00  0.00000000E+00  0.00000000E+00
  0.00000000E+00  0.00000000E+00  0.00000000E+00
  0.00000000E+00  0.00000000E+00  0.00000000E+00
  0.00000000E+00  0.00000000E+00  0.00000000E+00
  0.00000000E+00  0.00000000E+00  0.00000000E+00
  0.00000000E+00  0.00000000E+00  0.00000000E+00
  0.00000000E+00  0.00000000E+00  0.00000000E+00
  0.00000000E+00  0.00000000E+00  0.00000000E+00
  0.00000000E+00  0.00000000E+00  0.00000000E+00
  0.00000000E+00  0.00000000E+00  0.00000000E+00
  0.00000000E+00  0.00000000E+00  0.00000000E+00
  0.00000000E+00  0.00000000E+00  0.00000000E+00
  0.00000000E+00  0.00000000E+00  0.00000000E+00
  0.00000000E+00  0.00000000E+00  0.00000000E+00
  0.00000000E+00  0.00000000E+00  0.00000000E+00
  0.00000000E+00  0.00000000E+00  0.00000000E+00
  0.00000000E+00  0.00000000E+00  0.00000000E+00
  0.00000000E+00  0.00000000E+00  0.00000000E+00
  0.00000000E+00  0.00000000E+00  0.00000000E+00
  0.00000000E+00  0.00000000E+00  0.00000000E+00
  0.00000000E+00  0.00000000E+00  0.00000000E+00
  0.00000000E+00  0.00000000E+00  0.00000000E+00
  0.00000000E+00  0.00000000E+00  0.00000000E+00
  0.00000000E+00  0.00000000E+00  0.00000000E+00
  0.00000000E+00  0.00000000E+00  0.00000000E+00
  0.00000000E+00  0.00000000E+00  0.00000000E+00
  0.00000000E+00  0.00000000E+00  0.00000000E+00
  0.00000000E+00  0.00000000E+00  0.00000000E+00
  0.00000000E+00  0.00000000E+00  0.00000000E+00
  0.00000000E+00  0.00000000E+00  0.00000000E+00
  0.00000000E+00  0.00000000E+00  0.00000000E+00
  0.00000000E+00  0.00000000E+00  0.00000000E+00
  0.00000000E+00  0.00000000E+00  0.00000000E+00
  0.00000000E+00  0.00000000E+00  0.00000000E+00
  0.00000000E+00  0.00000000E+00  0.00000000E+00
  0.00000000E+00  0.00000000E+00  0.00000000E+00
  0.00000000E+00  0.00000000E+00  0.00000000E+00
  0.00000000E+00  0.00000000E+00  0.00000000E+00
  0.00000000E+00  0.00000000E+00  0.00000000E+00
  0.00000000E+00  0.00000000E+00  0.00000000E+00
  0.00000000E+00  0.00000000E+00  0.00000000E+00
  0.00000000E+00  0.00000000E+00  0.00000000E+00
  0.00000000E+00  0.00000000E+00  0.00000000E+00
  0.00000000E+00  0.00000000E+00  0.00000000E+00
  0.00000000E+00  0.00000000E+00  0.00000000E+00
  0.00000000E+00  0.00000000E+00  0.00000000E+00
  0.00000000E+00  0.00000000E+00  0.00000000E+00
  0.00000000E+00  0.00000000E+00  0.00000000E+00
  0.00000000E+00  0.00000000E+00  0.00000000E+00
  0.00000000E+00  0.00000000E+00  0.00000000E+00
  0.00000000E+00  0.00000000E+00  0.00000000E+00
  0.00000000E+00  0.00000000E+00  0.00000000E+00
  0.00000000E+00  0.00000000E+00  0.00000000E+00
  0.00000000E+00  0.00000000E+00  0.00000000E+00
  0.00000000E+00  0.00000000E+00  0.00000000E+00
  0.00000000E+00  0.00000000E+00  0.00000000E+00
  0.00000000E+00  0.00000000E+00  0.00000000E+00
  0.00000000E+00  0.00000000E+00  0.00000000E+00
  0.00000000E+00  0.00000000E+00  0.00000000E+00
  0.00000000E+00  0.00000000E+00  0.00000000E+00
  0.00000000E+00  0.00000000E+00  0.00000000E+00
  0.00000000E+00  0.00000000E+00  0.00000000E+00
  0.00000000E+00  0.00000000E+00  0.00000000E+00
  0.00000000E+00  0.00000000E+00  0.00000000E+00
  0.00000000E+00  0.00000000E+00  0.00000000E+00
  0.00000000E+00  0.00000000E+00  0.00000000E+00
  0.00000000E+00  0.00000000E+00  0.00000000E+00
  0.00000000E+00  0.00000000E+00  0.00000000E+00
  0.00000000E+00  0.00000000E+00  0.00000000E+00
  0.00000000E+00  0.00000000E+00  0.00000000E+00
  0.00000000E+00  0.00000000E+00  0.00000000E+00
  0.00000000E+00  0.00000000E+00  0.00000000E+00
  0.00000000E+00  0.00000000E+00  0.00000000E+00
  0.00000000E+00  0.00000000E+00  0.00000000E+00
  0.00000000E+00  0.00000000E+00  0.00000000E+00
  0.00000000E+00  0.00000000E+00  0.00000000E+00
  0.00000000E+00  0.00000000E+00  0.00000000E+00
  0.00000000E+00  0.00000000E+00  0.00000000E+00
  0.00000000E+00  0.00000000E+00  0.00000000E+00
  0.00000000E+00  0.00000000E+00  0.00000000E+00
  0.00000000E+00  0.00000000E+00  0.00000000E+00
  0.00000000E+00  0.00000000E+00  0.00000000E+00
  0.00000000E+00  0.00000000E+00  0.00000000E+00
  0.00000000E+00  0.00000000E+00  0.00000000E+00
  0.00000000E+00  0.00000000E+00  0.00000000E+00
  0.00000000E+00  0.00000000E+00  0.00000000E+00
  0.00000000E+00  0.00000000E+00  0.00000000E+00
  0.00000000E+00  0.00000000E+00  0.00000000E+00
  0.00000000E+00  0.00000000E+00  0.00000000E+00
  0.00000000E+00  0.00000000E+00  0.00000000E+00
  0.00000000E+00  0.00000000E+00  0.00000000E+00
  0.00000000E+00  0.00000000E+00  0.00000000E+00
  0.00000000E+00  0.00000000E+00  0.00000000E+00
  0.00000000E+00  0.00000000E+00  0.00000000E+00
  0.00000000E+00  0.00000000E+00  0.00000000E+00
  0.00000000E+00  0.00000000E+00  0.00000000E+00
  0.00000000E+00  0.00000000E+00  0.00000000E+00
  0.00000000E+00  0.00000000E+00  0.00000000E+00
  0.00000000E+00  0.00000000E+00  0.00000000E+00
  0.00000000E+00  0.00000000E+00  0.00000000E+00
  0.00000000E+00  0.00000000E+00  0.00000000E+00
  0.00000000E+00  0.00000000E+00  0.00000000E+00
  0.00000000E+00  0.00000000E+00  0.00000000E+00
  0.00000000E+00  0.00000000E+00  0.00000000E+00
  0.00000000E+00  0.00000000E+00  0.00000000E+00
  0.00000000E+00  0.00000000E+00  0.00000000E+00
  0.00000000E+00  0.00000000E+00  0.00000000E+00
  0.00000000E+00  0.00000000E+00  0.00000000E+00
  0.00000000E+00  0.00000000E+00  0.00000000E+00
  0.00000000E+00  0.00000000E+00  0.00000000E+00
  0.00000000E+00  0.00000000E+00  0.00000000E+00
  0.00000000E+00  0.00000000E+00  0.00000000E+00
  0.00000000E+00  0.00000000E+00  0.00000000E+00
  0.00000000E+00  0.00000000E+00  0.00000000E+00
  0.00000000E+00  0.00000000E+00  0.00000000E+00
  0.00000000E+00  0.00000000E+00  0.00000000E+00
  0.00000000E+00  0.00000000E+00  0.00000000E+00
  0.00000000E+00  0.00000000E+00  0.00000000E+00
  0.00000000E+00  0.00000000E+00  0.00000000E+00
  0.00000000E+00  0.00000000E+00  0.00000000E+00
  0.00000000E+00  0.00000000E+00  0.00000000E+00
  0.00000000E+00  0.00000000E+00  0.00000000E+00
  0.00000000E+00  0.00000000E+00  0.00000000E+00
  0.00000000E+00  0.00000000E+00  0.00000000E+00
  0.00000000E+00  0.00000000E+00  0.00000000E+00
  0.00000000E+00  0.00000000E+00  0.00000000E+00
  0.00000000E+00  0.00000000E+00  0.00000000E+00
  0.00000000E+00  0.00000000E+00  0.00000000E+00
  0.00000000E+00  0.00000000E+00  0.00000000E+00
  0.00000000E+00  0.00000000E+00  0.00000000E+00
  0.00000000E+00  0.00000000E+00  0.00000000E+00
  0.00000000E+00  0.00000000E+00  0.00000000E+00
  0.00000000E+00  0.00000000E+00  0.00000000E+00
  0.00000000E+00  0.00000000E+00  0.00000000E+00
  0.00000000E+00  0.00000000E+00  0.00000000E+00
  0.00000000E+00  0.00000000E+00  0.00000000E+00
  0.00000000E+00  0.00000000E+00  0.00000000E+00
  0.00000000E+00  0.00000000E+00  0.00000000E+00
  0.00000000E+00  0.00000000E+00  0.00000000E+00
  0.00000000E+00  0.00000000E+00  0.00000000E+00
  0.00000000E+00  0.00000000E+00  0.00000000E+00
  0.00000000E+00  0.00000000E+00  0.00000000E+00
  0.00000000E+00  0.00000000E+00  0.00000000E+00
  0.00000000E+00  0.00000000E+00  0.00000000E+00
  0.00000000E+00  0.00000000E+00  0.00000000E+00
  0.00000000E+00  0.00000000E+00  0.00000000E+00
  0.00000000E+00  0.00000000E+00  0.00000000E+00
  0.00000000E+00  0.00000000E+00  0.00000000E+00
  0.00000000E+00  0.00000000E+00  0.00000000E+00
  0.00000000E+00  0.00000000E+00  0.00000000E+00
  0.00000000E+00  0.00000000E+00  0.00000000E+00
  0.00000000E+00  0.00000000E+00  0.00000000E+00
  0.00000000E+00  0.00000000E+00  0.00000000E+00
  0.00000000E+00  0.00000000E+00  0.00000000E+00
  0.00000000E+00  0.00000000E+00  0.00000000E+00
  0.00000000E+00  0.00000000E+00  0.00000000E+00
  0.00000000E+00  0.00000000E+00  0.00000000E+00
  0.00000000E+00  0.00000000E+00  0.00000000E+00
  0.00000000E+00  0.00000000E+00  0.00000000E+00
  0.00000000E+00  0.00000000E+00  0.00000000E+00
  0.00000000E+00  0.00000000E+00  0.00000000E+00
  0.00000000E+00  0.00000000E+00  0.00000000E+00
  0.00000000E+00  0.00000000E+00  0.00000000E+00
  0.00000000E+00  0.00000000E+00  0.00000000E+00
  0.00000000E+00  0.00000000E+00  0.00000000E+00
  0.00000000E+00  0.00000000E+00  0.00000000E+00
  0.00000000E+00  0.00000000E+00  0.00000000E+00
  0.00000000E+00  0.00000000E+00  0.00000000E+00
  0.00000000E+00  0.00000000E+00  0.00000000E+00
  0.00000000E+00  0.00000000E+00  0.00000000E+00
  0.00000000E+00  0.00000000E+00  0.00000000E+00
  0.00000000E+00  0.00000000E+00  0.00000000E+00
  0.00000000E+00  0.00000000E+00  0.00000000E+00
  0.00000000E+00  0.00000000E+00  0.00000000E+00
  0.00000000E+00  0.00000000E+00  0.00000000E+00
  0.00000000E+00  0.00000000E+00  0.00000000E+00
  0.00000000E+00  0.00000000E+00  0.00000000E+00
  0.00000000E+00  0.00000000E+00  0.00000000E+00
  0.00000000E+00  0.00000000E+00  0.00000000E+00
  0.00000000E+00  0.00000000E+00  0.00000000E+00
  0.00000000E+00  0.00000000E+00  0.00000000E+00
  0.00000000E+00  0.00000000E+00  0.00000000E+00
  0.00000000E+00  0.00000000E+00  0.00000000E+00
  0.00000000E+00  0.00000000E+00  0.00000000E+00
