 C  N Co  O  H                          
   1.00000000000000     
    12.4758271799999996    0.0000000000000000    0.0000000000000000
     0.0000000000000000   12.7377722799999997    0.0000000000000000
     0.0000000000000000    0.0000000000000000   19.8713392800000008
   C    N    Co   O    H 
    54     4     1    47    91
Direct
  0.1132424369673121  0.2452672943002020  0.1543747505621876
  0.2137319556089834  0.3002427333421723  0.1540235895348704
  0.2130207470208004  0.4114009761347074  0.1521119113506009
  0.1132867564525094  0.4665091885409219  0.1505524950316996
  0.3145930356761548  0.2458678737833174  0.1557259040543348
  0.4146660987533163  0.3021820767115026  0.1559150011622630
  0.4134992449300611  0.4144122613362928  0.1547913960659973
  0.3123154362539388  0.4670949126847126  0.1527994208984427
  0.5147083247215324  0.2464922724992667  0.1573493631667583
  0.6131932962977439  0.3056495080645472  0.1574171237697954
  0.6132729017168554  0.4200060877285536  0.1573801160359894
  0.5115674294145433  0.4754698809534305  0.1562088951204430
  0.7116543358793058  0.2465028506006607  0.1569064507858020
  0.8117617075098630  0.3022090162895854  0.1550380135323063
  0.8129242609075678  0.4145662581586438  0.1539880669424301
  0.7148753598518648  0.4755373284175896  0.1565268151282081
  0.9119510177759352  0.2457974377665521  0.1548019731515696
  0.0127986699479483  0.3002756204207844  0.1534012371322492
  0.0134731679300768  0.4114850523231160  0.1514280560121439
  0.9141696087292781  0.4671653099786819  0.1519957505963121
  0.1133349236373060  0.5777975369334328  0.1501490925228884
  0.2116439853585531  0.6340884937276777  0.1513083848216617
  0.2116021003983196  0.7453792399046987  0.1527933417549402
  0.1133007085694851  0.8016517647952879  0.1533143695054299
  0.3104743035009553  0.5783669311814847  0.1525180677031114
  0.4082393293817029  0.6336007907860128  0.1546214767268065
  0.4081933422738715  0.7456565746124952  0.1560458193806973
  0.3105240020390730  0.8009852226755951  0.1549943221235772
  0.8182386225048828  0.6336239612249328  0.1555679787506455
  0.8182614054047292  0.7456475924290366  0.1569142194535004
  0.9159303790825323  0.5783841451352864  0.1525111107764420
  0.0148881905604508  0.6340232545274075  0.1512843179241176
  0.0149181071686049  0.7454221622444408  0.1529560919812905
  0.9159336813859787  0.8010108881514487  0.1552889760638728
  0.1132086657703130  0.9129980128966916  0.1551543002066961
  0.2130022169356157  0.9681019111949720  0.1560291012867128
  0.1131819006617175  0.1343997004248273  0.1557040892252494
  0.3122534716973256  0.9123086415779623  0.1563099148089306
  0.4135902393817869  0.9650418087218443  0.1575992181906106
  0.4147169399442250  0.0774839838415938  0.1576701387614948
  0.3145638501431725  0.1338907507128104  0.1567942843516396
  0.5117179002059989  0.9038124379127065  0.1591197238603475
  0.6132737639998382  0.9594996815183744  0.1597557632440499
  0.6131848682841931  0.0740232813479989  0.1586673933146479
  0.5147878556069777  0.1332775303657237  0.1581001404418478
  0.7148424536768688  0.9038649551850102  0.1592104834573768
  0.8129033445448678  0.9649196085185525  0.1571006890433671
  0.8118010666355826  0.0773906349530089  0.1567061044688953
  0.7116625139459003  0.1332077709748111  0.1575216571328154
  0.9141895003955826  0.9123278712168927  0.1561917017929444
  0.0134446398045226  0.9681056165098640  0.1558933029678269
  0.9119551883097358  0.1338192067835459  0.1559757752773500
  0.2136910860851549  0.0793983751530760  0.1563521143059702
  0.0127663908667227  0.0793768895308888  0.1560277983396117
  0.5062261208068529  0.5836899134601405  0.1554862279313308
  0.5063965755221286  0.7953660158264846  0.1589238481569455
  0.7202035339826602  0.5838264035757610  0.1572152330222653
  0.7199459557960598  0.7953362607928084  0.1598936327183003
  0.6126376746711225  0.6888909207581330  0.1684375935511623
  0.4829158336879046  0.4776354503225195  0.3736870198253696
  0.6413474634002878  0.1744262161449897  0.4073734119907657
  0.8551187765112057  0.8203237532999005  0.5665603786220831
  0.0978647246884127  0.4462122099323966  0.3259553258613527
  0.0782981291513279  0.9651779424781065  0.5250766230337444
  0.3530673011231218  0.1625872234342169  0.6756169361495931
  0.7090429738858832  0.8174296804902008  0.6854163361819314
  0.2012444679304289  0.2468391181238763  0.4078214748176854
  0.9325660451696832  0.7023316887260453  0.4067507492621577
  0.6936198491983353  0.3921869927727447  0.3981078928270873
  0.6394901354626024  0.8525296262320243  0.3451951077114974
  0.2399434083422397  0.8339436061333924  0.3570040833517298
  0.3341832855358971  0.4371966327564796  0.5842328112666624
  0.9398113602547006  0.6736308877004601  0.6786928886140779
  0.0879699792425719  0.1777606372286205  0.5816900862621343
  0.2505639861323036  0.7612843411171473  0.4860378948823606
 -0.0053493312149572  0.3040875142103722  0.4771840729487469
  0.7563483842331065  0.0290647009279494  0.3242963479084445
  0.3594180732166621  0.7527892798839417  0.6671916458995185
  0.9618463465300632  0.5255163122962153  0.4936614330851656
  0.7554661502489327  0.4745021267662477  0.5287701520477557
  0.8363078434411878  0.1471153122612111  0.4901070187498875
  0.1094787584758227  0.6623348777757201  0.3138575271014107
  0.7859419011171808  0.5096872838757736  0.7278997253080061
  0.4866477437305347  0.0350318510815569  0.4566121378808366
  0.1639353467970299  0.6142640875069221  0.6746875485544465
  0.9092232146171167  0.9609245081523589  0.4311277247783013
  0.5732618159476088  0.6468023869245628  0.6980163705923753
  0.1715285443480765  0.0498413796263801  0.3370683081644915
  0.9106147838919060  0.8409582900809993  0.7656747041776024
  0.4292814442177554  0.9304946044714778  0.3306681057322007
  0.0368976463764013  1.0011960656833629  0.6980383166850821
  0.0711125805103119  0.2251515226252771  0.7181794720238003
  0.5340578224851602  0.5364963855594108  0.5799788984578375
  0.4528027483602521  0.7306450881200164  0.5369852864335261
  0.8292223719874389  0.1163593631737501  0.6364217017226524
  0.2593653981488678  0.3866499758152007  0.7115824872260748
  0.6320908494611115  0.8543036128959917  0.4929212713184972
  0.1676134731509068  0.5722016459264810  0.5392904667528616
  0.3066952278038080  0.9735187038228136  0.5336408212831155
  0.8911733790952963  0.3203962059039039  0.6818273953923366
  0.4056129039899196  0.2785862201455178  0.3471680139759253
  0.8744921426990688  0.4305623131201395  0.3163837710636774
  0.2654502874201151  0.9596706632282659  0.6730947788460213
  0.2860820900882591  0.2351526688871734  0.5345663324951189
  0.6132733654768280  0.6748292803579643  0.2660817439866962
  0.5072885122261641  0.6695456888988450  0.2951117513540651
  0.4580800921374968  0.4989274076441151  0.4181391303592645
  0.4479924398244702  0.4082772805233023  0.3647038445569712
  0.6769111229301209  0.1259434381635599  0.3754969432899075
  0.5873500825989231  0.1316563838161766  0.4315556770258048
  0.9109794149423515  0.8725560811696791  0.5582109415680314
  0.7970404464169979  0.8371132672463495  0.5350758682362802
  0.1325043986397442  0.3946885700071662  0.3551033149284416
  0.0196128018332960  0.4347231551849542  0.3305915836758851
  0.0338799430977737  0.9696261244735873  0.4842138485043670
  0.0677870915679218  0.0322153362772952  0.5489981639217373
  0.3507559230623670  0.1756463182999834  0.6269908800773905
  0.3190136489528699  0.2246879071070598  0.6950996505044393
  0.7547525783957738  0.8268242332711772  0.6456826639265209
  0.7567142338454893  0.8345672081238438  0.7229890282616346
  0.1844363135952933  0.1749315453606622  0.3925094808928553
  0.2336986215085506  0.2395996098636712  0.4540060409254998
  0.9299650642029732  0.7711390976467318  0.4283935253523197
  0.9952427795655086  0.7031804717411673  0.3768197274325910
  0.6737689681612274  0.3175301562722065  0.4023802729565331
  0.6259619208956483  0.4286655165119814  0.3874657574925108
  0.5628533614215349  0.8709512056491800  0.3404896729675923
  0.6465470306413265  0.7884419544804878  0.3171796726126251
  0.2451321320702732  0.8087825217406389  0.4047013042488656
  0.2033933836899234  0.7754117585597984  0.3340776428553074
  0.4066484313154027  0.4706967800747266  0.5831910989650259
  0.2825507854721119  0.4871494249340528  0.5643008517876181
  0.9201874462899564  0.7033287786993437  0.6349272963509494
  0.0156490500996479  0.6515828209052371  0.6757455809850463
  0.0793100059261199  0.1918760163098630  0.6307437252088040
  0.0422550956537143  0.2289788261354778  0.5582415794188722
  0.2309824428272412  0.8248569050214000  0.5111618142167342
  0.3276285361855109  0.7519639659197909  0.4986229001035325
  0.0575372694803078  0.2911971572369513  0.4487045274150403
  0.9836234075919538  0.3810269350861701  0.4782268820341202
  0.7158028850696292  0.9613290174421875  0.3282823248924149
  0.7605183472859496  0.0437329841838732  0.2763576734447761
  0.3330633147841203  0.8244605583821540  0.6765569445152571
  0.2960775759222004  0.7075183351811940  0.6727626231330424
  0.9488939501187301  0.5836041677124846  0.4615123613754140
  0.8917223697198963  0.5164502975554318  0.5168122767886439
  0.7314400800319345  0.4454921987921528  0.4854888503261338
  0.6897382403009322  0.4979793125314347  0.5512300129979916
  0.7677468690265583  0.1665031416144113  0.4691819093440559
  0.8855305706235015  0.2067905684163918  0.4822189632046040
  0.0743840335916302  0.6654348371375035  0.2701995979484549
  0.1157708304610246  0.5855511237152352  0.3231928896288966
  0.8326608979441746  0.5641972647582549  0.7089531874788185
  0.7136341015942634  0.5386427237693167  0.7254987518664548
  0.4258214834976832  0.0282395308759112  0.4885400450261506
  0.4605995796394206  1.0025005435863394  0.4148912812441393
  0.1647889396479230  0.5967786108547914  0.6256945691749640
  0.1776265130799081  0.5471539026614111  0.6971349755543694
  0.8791722150803626  0.0249102397063369  0.4527732500883606
  0.8904552758109927  0.9716435694056524  0.3839151132318597
  0.5035920098724072  0.6817743360128132  0.7024359031826984
  0.6249569515509287  0.7059215014559670  0.6926073461337423
  0.1838947781671187  0.9760044182259281  0.3501886744326622
  0.2288266104514534  0.0640321407130649  0.3051343911511201
  0.9175081953268033  0.8192087596235007  0.8123750539323975
  0.9265524467561100  0.7771982799695891  0.7383118407090332
  0.3636893003742784  0.8858758138976437  0.3361674715487498
  0.4252203451374360  0.9599201176086749  0.2856005014741167
  0.9983339964512127  0.9533220230598691  0.7285594078804107
  0.0452032202368966  0.0683908905470136  0.7216339450441401
  1.0036982229262110  0.2680711403161857  0.7136647864092542
  0.1287644794454762  0.2754709597321992  0.7262111361493420
  0.5127250570144467  0.6014410900882946  0.5560593884344460
  0.5529265371969949  0.5658306642204852  0.6250836416187616
  0.4297033320843903  0.7476159482692309  0.5835864433312377
  0.5138807378559171  0.7770416717691240  0.5253575519213404
  0.8315396700838078  0.1226695921467431  0.5871589809057198
  0.8919845409514016  0.0743612658569237  0.6486270129837252
  0.3129299651522122  0.4061834283883144  0.7449332628138455
  0.2914979620371616  0.4057830331315031  0.6672045603757621
  0.6438687581509419  0.8381623070585918  0.4449864199466972
  0.5969309059487279  0.9233895281983205  0.4910885278716948
  0.1866859362371472  0.6393746641070800  0.5172697188962623
  0.0932942903164820  0.5539348342611216  0.5251711557259215
  0.2337627099420362  0.9927562969691716  0.5195179058651631
  0.2989901412469146  0.9688737613548885  0.5832813049039143
  0.8488528021603019  0.2586741155024325  0.6681066986292641
  0.8425423489982420  0.3755293521303028  0.6982330662966506
  0.3342899843374800  0.2658691953590594  0.3678463837321609
  0.4552502858493512  0.2321731223392292  0.3708529885518428
  0.8557204706537290  0.3805880378424287  0.2813736555765158
  0.8152857024740090  0.4236290493543147  0.3493509252811624
  0.2951475695731063  0.0293059071940941  0.6851335849256367
  0.1873969973997215  0.9655332311808550  0.6808087828404857
  0.2165357391619515  0.2170646860560996  0.5567421537692676
  0.3040518327086494  0.3072409336466443  0.5493248762259261
  0.5033838017293408  0.5960879884562588  0.3118044453622828
 
  0.00000000E+00  0.00000000E+00  0.00000000E+00
  0.00000000E+00  0.00000000E+00  0.00000000E+00
  0.00000000E+00  0.00000000E+00  0.00000000E+00
  0.00000000E+00  0.00000000E+00  0.00000000E+00
  0.00000000E+00  0.00000000E+00  0.00000000E+00
  0.00000000E+00  0.00000000E+00  0.00000000E+00
  0.00000000E+00  0.00000000E+00  0.00000000E+00
  0.00000000E+00  0.00000000E+00  0.00000000E+00
  0.00000000E+00  0.00000000E+00  0.00000000E+00
  0.00000000E+00  0.00000000E+00  0.00000000E+00
  0.00000000E+00  0.00000000E+00  0.00000000E+00
  0.00000000E+00  0.00000000E+00  0.00000000E+00
  0.00000000E+00  0.00000000E+00  0.00000000E+00
  0.00000000E+00  0.00000000E+00  0.00000000E+00
  0.00000000E+00  0.00000000E+00  0.00000000E+00
  0.00000000E+00  0.00000000E+00  0.00000000E+00
  0.00000000E+00  0.00000000E+00  0.00000000E+00
  0.00000000E+00  0.00000000E+00  0.00000000E+00
  0.00000000E+00  0.00000000E+00  0.00000000E+00
  0.00000000E+00  0.00000000E+00  0.00000000E+00
  0.00000000E+00  0.00000000E+00  0.00000000E+00
  0.00000000E+00  0.00000000E+00  0.00000000E+00
  0.00000000E+00  0.00000000E+00  0.00000000E+00
  0.00000000E+00  0.00000000E+00  0.00000000E+00
  0.00000000E+00  0.00000000E+00  0.00000000E+00
  0.00000000E+00  0.00000000E+00  0.00000000E+00
  0.00000000E+00  0.00000000E+00  0.00000000E+00
  0.00000000E+00  0.00000000E+00  0.00000000E+00
  0.00000000E+00  0.00000000E+00  0.00000000E+00
  0.00000000E+00  0.00000000E+00  0.00000000E+00
  0.00000000E+00  0.00000000E+00  0.00000000E+00
  0.00000000E+00  0.00000000E+00  0.00000000E+00
  0.00000000E+00  0.00000000E+00  0.00000000E+00
  0.00000000E+00  0.00000000E+00  0.00000000E+00
  0.00000000E+00  0.00000000E+00  0.00000000E+00
  0.00000000E+00  0.00000000E+00  0.00000000E+00
  0.00000000E+00  0.00000000E+00  0.00000000E+00
  0.00000000E+00  0.00000000E+00  0.00000000E+00
  0.00000000E+00  0.00000000E+00  0.00000000E+00
  0.00000000E+00  0.00000000E+00  0.00000000E+00
  0.00000000E+00  0.00000000E+00  0.00000000E+00
  0.00000000E+00  0.00000000E+00  0.00000000E+00
  0.00000000E+00  0.00000000E+00  0.00000000E+00
  0.00000000E+00  0.00000000E+00  0.00000000E+00
  0.00000000E+00  0.00000000E+00  0.00000000E+00
  0.00000000E+00  0.00000000E+00  0.00000000E+00
  0.00000000E+00  0.00000000E+00  0.00000000E+00
  0.00000000E+00  0.00000000E+00  0.00000000E+00
  0.00000000E+00  0.00000000E+00  0.00000000E+00
  0.00000000E+00  0.00000000E+00  0.00000000E+00
  0.00000000E+00  0.00000000E+00  0.00000000E+00
  0.00000000E+00  0.00000000E+00  0.00000000E+00
  0.00000000E+00  0.00000000E+00  0.00000000E+00
  0.00000000E+00  0.00000000E+00  0.00000000E+00
  0.00000000E+00  0.00000000E+00  0.00000000E+00
  0.00000000E+00  0.00000000E+00  0.00000000E+00
  0.00000000E+00  0.00000000E+00  0.00000000E+00
  0.00000000E+00  0.00000000E+00  0.00000000E+00
  0.00000000E+00  0.00000000E+00  0.00000000E+00
  0.00000000E+00  0.00000000E+00  0.00000000E+00
  0.00000000E+00  0.00000000E+00  0.00000000E+00
  0.00000000E+00  0.00000000E+00  0.00000000E+00
  0.00000000E+00  0.00000000E+00  0.00000000E+00
  0.00000000E+00  0.00000000E+00  0.00000000E+00
  0.00000000E+00  0.00000000E+00  0.00000000E+00
  0.00000000E+00  0.00000000E+00  0.00000000E+00
  0.00000000E+00  0.00000000E+00  0.00000000E+00
  0.00000000E+00  0.00000000E+00  0.00000000E+00
  0.00000000E+00  0.00000000E+00  0.00000000E+00
  0.00000000E+00  0.00000000E+00  0.00000000E+00
  0.00000000E+00  0.00000000E+00  0.00000000E+00
  0.00000000E+00  0.00000000E+00  0.00000000E+00
  0.00000000E+00  0.00000000E+00  0.00000000E+00
  0.00000000E+00  0.00000000E+00  0.00000000E+00
  0.00000000E+00  0.00000000E+00  0.00000000E+00
  0.00000000E+00  0.00000000E+00  0.00000000E+00
  0.00000000E+00  0.00000000E+00  0.00000000E+00
  0.00000000E+00  0.00000000E+00  0.00000000E+00
  0.00000000E+00  0.00000000E+00  0.00000000E+00
  0.00000000E+00  0.00000000E+00  0.00000000E+00
  0.00000000E+00  0.00000000E+00  0.00000000E+00
  0.00000000E+00  0.00000000E+00  0.00000000E+00
  0.00000000E+00  0.00000000E+00  0.00000000E+00
  0.00000000E+00  0.00000000E+00  0.00000000E+00
  0.00000000E+00  0.00000000E+00  0.00000000E+00
  0.00000000E+00  0.00000000E+00  0.00000000E+00
  0.00000000E+00  0.00000000E+00  0.00000000E+00
  0.00000000E+00  0.00000000E+00  0.00000000E+00
  0.00000000E+00  0.00000000E+00  0.00000000E+00
  0.00000000E+00  0.00000000E+00  0.00000000E+00
  0.00000000E+00  0.00000000E+00  0.00000000E+00
  0.00000000E+00  0.00000000E+00  0.00000000E+00
  0.00000000E+00  0.00000000E+00  0.00000000E+00
  0.00000000E+00  0.00000000E+00  0.00000000E+00
  0.00000000E+00  0.00000000E+00  0.00000000E+00
  0.00000000E+00  0.00000000E+00  0.00000000E+00
  0.00000000E+00  0.00000000E+00  0.00000000E+00
  0.00000000E+00  0.00000000E+00  0.00000000E+00
  0.00000000E+00  0.00000000E+00  0.00000000E+00
  0.00000000E+00  0.00000000E+00  0.00000000E+00
  0.00000000E+00  0.00000000E+00  0.00000000E+00
  0.00000000E+00  0.00000000E+00  0.00000000E+00
  0.00000000E+00  0.00000000E+00  0.00000000E+00
  0.00000000E+00  0.00000000E+00  0.00000000E+00
  0.00000000E+00  0.00000000E+00  0.00000000E+00
  0.00000000E+00  0.00000000E+00  0.00000000E+00
  0.00000000E+00  0.00000000E+00  0.00000000E+00
  0.00000000E+00  0.00000000E+00  0.00000000E+00
  0.00000000E+00  0.00000000E+00  0.00000000E+00
  0.00000000E+00  0.00000000E+00  0.00000000E+00
  0.00000000E+00  0.00000000E+00  0.00000000E+00
  0.00000000E+00  0.00000000E+00  0.00000000E+00
  0.00000000E+00  0.00000000E+00  0.00000000E+00
  0.00000000E+00  0.00000000E+00  0.00000000E+00
  0.00000000E+00  0.00000000E+00  0.00000000E+00
  0.00000000E+00  0.00000000E+00  0.00000000E+00
  0.00000000E+00  0.00000000E+00  0.00000000E+00
  0.00000000E+00  0.00000000E+00  0.00000000E+00
  0.00000000E+00  0.00000000E+00  0.00000000E+00
  0.00000000E+00  0.00000000E+00  0.00000000E+00
  0.00000000E+00  0.00000000E+00  0.00000000E+00
  0.00000000E+00  0.00000000E+00  0.00000000E+00
  0.00000000E+00  0.00000000E+00  0.00000000E+00
  0.00000000E+00  0.00000000E+00  0.00000000E+00
  0.00000000E+00  0.00000000E+00  0.00000000E+00
  0.00000000E+00  0.00000000E+00  0.00000000E+00
  0.00000000E+00  0.00000000E+00  0.00000000E+00
  0.00000000E+00  0.00000000E+00  0.00000000E+00
  0.00000000E+00  0.00000000E+00  0.00000000E+00
  0.00000000E+00  0.00000000E+00  0.00000000E+00
  0.00000000E+00  0.00000000E+00  0.00000000E+00
  0.00000000E+00  0.00000000E+00  0.00000000E+00
  0.00000000E+00  0.00000000E+00  0.00000000E+00
  0.00000000E+00  0.00000000E+00  0.00000000E+00
  0.00000000E+00  0.00000000E+00  0.00000000E+00
  0.00000000E+00  0.00000000E+00  0.00000000E+00
  0.00000000E+00  0.00000000E+00  0.00000000E+00
  0.00000000E+00  0.00000000E+00  0.00000000E+00
  0.00000000E+00  0.00000000E+00  0.00000000E+00
  0.00000000E+00  0.00000000E+00  0.00000000E+00
  0.00000000E+00  0.00000000E+00  0.00000000E+00
  0.00000000E+00  0.00000000E+00  0.00000000E+00
  0.00000000E+00  0.00000000E+00  0.00000000E+00
  0.00000000E+00  0.00000000E+00  0.00000000E+00
  0.00000000E+00  0.00000000E+00  0.00000000E+00
  0.00000000E+00  0.00000000E+00  0.00000000E+00
  0.00000000E+00  0.00000000E+00  0.00000000E+00
  0.00000000E+00  0.00000000E+00  0.00000000E+00
  0.00000000E+00  0.00000000E+00  0.00000000E+00
  0.00000000E+00  0.00000000E+00  0.00000000E+00
  0.00000000E+00  0.00000000E+00  0.00000000E+00
  0.00000000E+00  0.00000000E+00  0.00000000E+00
  0.00000000E+00  0.00000000E+00  0.00000000E+00
  0.00000000E+00  0.00000000E+00  0.00000000E+00
  0.00000000E+00  0.00000000E+00  0.00000000E+00
  0.00000000E+00  0.00000000E+00  0.00000000E+00
  0.00000000E+00  0.00000000E+00  0.00000000E+00
  0.00000000E+00  0.00000000E+00  0.00000000E+00
  0.00000000E+00  0.00000000E+00  0.00000000E+00
  0.00000000E+00  0.00000000E+00  0.00000000E+00
  0.00000000E+00  0.00000000E+00  0.00000000E+00
  0.00000000E+00  0.00000000E+00  0.00000000E+00
  0.00000000E+00  0.00000000E+00  0.00000000E+00
  0.00000000E+00  0.00000000E+00  0.00000000E+00
  0.00000000E+00  0.00000000E+00  0.00000000E+00
  0.00000000E+00  0.00000000E+00  0.00000000E+00
  0.00000000E+00  0.00000000E+00  0.00000000E+00
  0.00000000E+00  0.00000000E+00  0.00000000E+00
  0.00000000E+00  0.00000000E+00  0.00000000E+00
  0.00000000E+00  0.00000000E+00  0.00000000E+00
  0.00000000E+00  0.00000000E+00  0.00000000E+00
  0.00000000E+00  0.00000000E+00  0.00000000E+00
  0.00000000E+00  0.00000000E+00  0.00000000E+00
  0.00000000E+00  0.00000000E+00  0.00000000E+00
  0.00000000E+00  0.00000000E+00  0.00000000E+00
  0.00000000E+00  0.00000000E+00  0.00000000E+00
  0.00000000E+00  0.00000000E+00  0.00000000E+00
  0.00000000E+00  0.00000000E+00  0.00000000E+00
  0.00000000E+00  0.00000000E+00  0.00000000E+00
  0.00000000E+00  0.00000000E+00  0.00000000E+00
  0.00000000E+00  0.00000000E+00  0.00000000E+00
  0.00000000E+00  0.00000000E+00  0.00000000E+00
  0.00000000E+00  0.00000000E+00  0.00000000E+00
  0.00000000E+00  0.00000000E+00  0.00000000E+00
  0.00000000E+00  0.00000000E+00  0.00000000E+00
  0.00000000E+00  0.00000000E+00  0.00000000E+00
  0.00000000E+00  0.00000000E+00  0.00000000E+00
  0.00000000E+00  0.00000000E+00  0.00000000E+00
  0.00000000E+00  0.00000000E+00  0.00000000E+00
  0.00000000E+00  0.00000000E+00  0.00000000E+00
  0.00000000E+00  0.00000000E+00  0.00000000E+00
  0.00000000E+00  0.00000000E+00  0.00000000E+00
  0.00000000E+00  0.00000000E+00  0.00000000E+00
  0.00000000E+00  0.00000000E+00  0.00000000E+00
  0.00000000E+00  0.00000000E+00  0.00000000E+00
  0.00000000E+00  0.00000000E+00  0.00000000E+00
  0.00000000E+00  0.00000000E+00  0.00000000E+00
