 C  N Co  O  H                          
   1.00000000000000     
    12.4758271799999996    0.0000000000000000    0.0000000000000000
     0.0000000000000000   12.7377722799999997    0.0000000000000000
     0.0000000000000000    0.0000000000000000   19.8713392800000008
   C    N    Co   O    H 
    54     4     1    46    92
Direct
  0.1170546092054602  0.4612786587901044  0.1596246158788134
  0.2176479015076161  0.5163685243493277  0.1597079640595707
  0.2169877059794101  0.6276218623790021  0.1592975270049306
  0.1170761066787991  0.6828596439239777  0.1586565134050167
  0.3185064028153947  0.4618932469962377  0.1596393612105469
  0.4185236936893637  0.5184288392637022  0.1594295011580435
  0.4174723269509799  0.6307046223763171  0.1592044069758957
  0.3162206498938526  0.6833688498278524  0.1590164873832701
  0.5185563617203341  0.4623140708294444  0.1591095044743042
  0.6168795714797530  0.5215667588173848  0.1591210756311202
  0.6169490121243615  0.6359504379815991  0.1589179929619212
  0.5156135234379541  0.6918234633212657  0.1587030520080955
  0.7154082467015459  0.4623746690519636  0.1591456740823695
  0.8156515640689622  0.5184870158125919  0.1591851936554556
  0.8165826549823775  0.6307247527239611  0.1589385200510691
  0.7183221700216202  0.6917480738656306  0.1585974806635866
  0.9157003662672284  0.4618534324649349  0.1593823519107513
  0.0165316200096430  0.5163179244230235  0.1595166928439226
  0.0171840297876711  0.6276355140332620  0.1590283361285812
  0.9179254608233965  0.6834108646930430  0.1586240397775809
  0.1170613594814903  0.7940072336255068  0.1575030730634675
  0.2154169115587327  0.8502250493637430  0.1574781582867903
  0.2153496156463100  0.9613491667317853  0.1571069125253175
  0.1169996081744397  0.0176241358136683  0.1564925222370036
  0.3143964874257734  0.7947534163588207  0.1582305222119734
  0.4120994472316624  0.8501370032231862  0.1580306840754819
  0.4120734548123383  0.9613796895615859  0.1578973655305097
  0.3144310626249804  0.0168531319181645  0.1577579637639842
  0.8220360851452508  0.8503094597597287  0.1573196653332743
  0.8220839868944180  0.9614316087292774  0.1566451292356738
  0.9197697898466098  0.7948032782996890  0.1575424311822890
  0.0187272412556019  0.8503069764453367  0.1566754460260299
  0.0186972101915045  0.9614114534959590  0.1559984625491911
  0.9197609534968719  0.0169325321742919  0.1563358485257916
  0.1170019748070925  0.1287167857347887  0.1574391745111436
  0.2169780682540533  0.1839934528564050  0.1583428354549770
  0.1170153769278705  0.3503777750516294  0.1592833238513910
  0.3162434698226241  0.1282734860024756  0.1582046227020866
  0.4175586124686563  0.1810385395573166  0.1584272214943417
  0.4186014809640805  0.2932546618936274  0.1587061506565998
  0.3185821829056039  0.3497800138879211  0.1592716972111645
  0.5157339803760379  0.1199690595506882  0.1582205089181610
  0.6170357000835217  0.1757514666482558  0.1582240983589601
  0.6169257132667241  0.2901196725576480  0.1586653993209639
  0.5186124341213116  0.3492904354066747  0.1587474084760144
  0.7183878360327605  0.1200023864503636  0.1575512573654834
  0.8165788230860039  0.1809145392321566  0.1577837767465620
  0.8155757145689163  0.2931152698247100  0.1587172784687383
  0.7154248261395785  0.3491396807802791  0.1589794006728716
  0.9178793491413989  0.1282443007336050  0.1571733769033960
  0.0170978551349114  0.1839948451404599  0.1578255000578641
  0.9156323428251626  0.3497277001732940  0.1591196708129312
  0.2176557930961290  0.2952863992176991  0.1591157317904931
  0.0164749035936766  0.2952621680188026  0.1588763027580305
  0.5109654395810074  0.8002433828015987  0.1578835631364136
  0.5111039038180855  0.0113510697170187  0.1579222205416434
  0.7229743054386362  0.8003153965243277  0.1578755261816799
  0.7229864820022393  0.0113904640748870  0.1568274526869977
  0.6169578472288917  0.9059157242998265  0.1571119327749488
  0.1185387139183608  0.1527416850314276  0.3823195262977498
  0.8705502328125219  0.8428137197430255  0.3676066132808801
  0.8229939995628520  0.5640393260877541  0.5208059612882865
  0.2615547963606252  0.5246019348481527  0.4544394748371542
  0.8252940356871825  0.8994439575283961  0.4988249922912628
  0.7453872021613508  0.4518725037379179  0.3270018837000719
  0.5404803207250304  0.7767174326554154  0.6169021904481822
  0.0907085019177938  0.2534393089025134  0.7264872443982693
  0.0567742214538955  0.9518376909227882  0.3135192460779351
  0.2064376070079171  0.9695722584644632  0.7000673719452650
  0.6894752430588894  0.9498407005003131  0.3170311772991633
  0.6541401225392420  0.4299030210879051  0.5531955526883282
  0.6375020574241331  0.6290864363575680  0.3761881901301490
  0.4489996027121176  0.3503163744217427  0.3263274389320933
  0.0533427590519681  0.0373070000929853  0.6078497749691383
  0.9213274947466009  0.1025473963868815  0.4643017308989871
  0.7346172998794751  0.2164689189526829  0.5369943448552774
  0.9800233222205847  0.3920378610307531  0.5052193406682888
  0.9723762804925133  0.4546327318730527  0.3630017771573297
  0.4151479417990591  0.3379589632085581  0.7166244268255197
  0.1004926356156318  0.2580371472966292  0.5870354772489057
  0.3433269071423924  0.1879566607065419  0.3974203461470805
  0.6692819286680048  0.2761381416250302  0.3933719356200007
  0.8284519000431113  0.1306090423093197  0.3383250285389637
  0.4031560787440522  0.9502509432010106  0.5982940018139248
  0.2344497648884607  0.6042742779152566  0.8336027096128815
  0.1312402355223194  0.7635844982742477  0.7558272831420034
  0.6134187193106490  0.7974948878884675  0.4850784623929253
  0.5395728537947666  0.1030972480413992  0.5304762146609713
  0.4282444677384290  0.7818720459910250  0.3283118750172719
  0.1515829413699289  0.7120739657813652  0.4562292346500820
  0.9451845181415941  0.6523151846967385  0.4157890434581944
  0.1862984700976554  0.8901568883050255  0.5360705066831768
  0.3167494814326535  0.1627060191870068  0.6568047272920792
  0.5482820295324019  0.0774395896445018  0.3916018365814293
  0.5344964661586364  0.5552787792645014  0.6524969521522298
  0.8611245829695667  0.7477966760333711  0.6017967502514571
  0.4331381438403403  0.2904610749623254  0.5149818343770597
  0.4278558759913665  0.5701140417257692  0.3613740625861038
  0.2688764621631210  0.4145908860390214  0.5827686878673983
  0.2200758741947893  0.4363446669940952  0.7387730372010352
  0.7074997508780757  0.8831795917069256  0.6790756557762673
  0.1652545415104072  0.3589324980433217  0.3400801546409456
  0.8379331492956460  0.0692865326082265  0.6420805181682081
  0.0443181753798610  0.6533636977417605  0.6511820001879548
  0.2138511503001234  0.7987521941765999  0.3271591396769897
  0.1928737506454489  0.1438574372067241  0.3980634216563227
  0.0704113014366545  0.1444066061988441  0.4211375476140407
  0.8588403824455647  0.8612641363075692  0.4157375288647372
  0.8055507422366784  0.8696752516881118  0.3453053528996013
  0.8541323948591464  0.5961941600799244  0.4797826748544206
  0.8268761141533260  0.6212930974080111  0.5542583837487539
  0.2208580706121211  0.4784584922900983  0.4244355065624850
  0.2198745011911905  0.5913751594461664  0.4574713365972293
  0.8598772202218943  0.9691458983243446  0.4993928959421561
  0.8546945921645964  0.8569253532547095  0.5360937208186458
  0.7239846927990261  0.4466773858396784  0.2798458231441808
  0.7122757081953198  0.5181482107034318  0.3437392816156020
  0.5300205233519368  0.7028542374170468  0.6308103429897457
  0.5655156944480494  0.7744026414584693  0.5692530311638744
  0.1264217996568224  0.3189953555217269  0.7409150568455620
  0.0283313287120956  0.2442779497965779  0.7551650711722173
  0.9923367969885191  0.9218695036983200  0.3347896809905548
  0.0704528965118232  0.0192891312610735  0.3357318262211827
  0.2460384654819067  0.9308935720058432  0.6656445915384207
  0.1417274728457517 -0.0067627801372837  0.6749167945523054
  0.6586248005601726  0.9403712708767219  0.2718590781073511
  0.6325132060147148  0.9823968534186808  0.3448797274607820
  0.5960292935341558  0.4201647335473059  0.5208810785340953
  0.7069667830626516  0.4794305579461214  0.5331745359026241
  0.6369234432949267  0.6861312216379367  0.3434111380991695
  0.5616423570955539  0.6031299622211065  0.3759750619498463
  0.4368996863948674  0.4263556548262410  0.3311680189739616
  0.5146289774197098  0.3367342470854290  0.3517348868532617
  0.0688720084405436  0.1096330122372577  0.5930654919128930
  0.9757479518421844  0.0387517384163763  0.6189887675187262
  0.8883791857275107  0.1084854367685823  0.4186777589527864
  0.8828302883474033  0.1552693380822338  0.4907306676446165
  0.6689231325277974  0.1732872505572404  0.5403040961951153
  0.7141083272990281  0.2867440129160074  0.5534687522670361
  0.9810679485212194  0.4023410820091153  0.4561802774869720
  0.9331138713737943  0.4485103846710390  0.5216802425073158
  0.9065156752733387  0.4374820089930327  0.3385278986876704
  0.0347411996974017  0.4212799957391791  0.3408595380914291
  0.3859708756588947  0.2731918917505021  0.6954853487970423
  0.4639298669524664  0.3137891146540565  0.7514821544742334
  0.0506715714697861  0.3001770068063854  0.5588427346454897
  0.0781787941450137  0.2663526650656019  0.6346053342365418
  0.3625736836236317  0.2468632144054564  0.3672555529001705
  0.4020876143579121  0.1373013585438002  0.3908330074013928
  0.6998714858072769  0.3413335265233019  0.3736240643910927
  0.6954136890384726  0.2706314972576216  0.4399353994370021
  0.7887705799768406  0.0675509246110663  0.3241569338619124
  0.7721464032589059  0.1810800514527181  0.3506352486182333
  0.3985023714748219  0.0002420239657801  0.6354246745941807
  0.4452652501908437  0.8884552284177384  0.6133201997667084
  0.2290805218444867  0.5448119541168305  0.8017077576336470
  0.3073807281822286  0.6017458439599107  0.8506813539812903
  0.1645395967689669  0.8321707635538177  0.7479154542839640
  0.1780174832156237  0.7220702182181565  0.7856099095397912
  0.6807061990143989  0.8376304978568427  0.4879237690126662
  0.6305870746371504  0.7354938067123538  0.4578448120123514
  0.5006456210597083  0.0456486985280761  0.5529223879015051
  0.4924319976608772  0.1661630145521435  0.5334552425298517
  0.4543110579103448  0.8172459844468307  0.3685834098545063
  0.3499123461254368  0.8003636908482905  0.3256914283916599
  0.1587474739440925  0.7738307516580640  0.4861971620968096
  0.0743932667836371  0.6995929882896420  0.4474684250373926
  0.9148597743686652  0.7083972379135448  0.3870896501760855
  0.9606134491355648  0.5902928004807406  0.3873429960227925
  0.2576780407091805  0.9154270797182815  0.5483438908119238
  0.1343958560416011  0.9405314667574300  0.5549016280928415
  0.2711800513426706  0.1169184334859944  0.6846824979925452
  0.2669080050946062  0.1933271231897838  0.6243104870535131
  0.5858347058958351  0.1436471123235528  0.3824307892406850
  0.5488912873182668  0.0739832028627863  0.4416849364214337
  0.4789587011612927  0.5058776411722193  0.6664011858871076
  0.5799294349159819  0.5137888032382159  0.6218406137471615
  0.9279352982014846  0.7203753275613802  0.6232103267338245
  0.8172972814036145  0.7779478804743220  0.6379055423999705
  0.3808598184179030  0.3291731491226079  0.5429086965321934
  0.3924057409775636  0.2654773890066758  0.4754971089177942
  0.4153434031922759  0.6427881532952009  0.3443554460186628
  0.3749624223565488  0.5596700155096318  0.3979915310824976
  0.2617288863963244  0.4588733501479198  0.5422007059265568
  0.2072614746404629  0.3661022802115013  0.5807634903222445
  0.2916904471300391  0.4021785327439564  0.7365285933393566
  0.2103691766018639  0.4630491928999398  0.6929582891635332
  0.6944581868586208  0.8877386291834318  0.7272125063484689
  0.6443320151300801  0.8454387965688288  0.6599664249565098
  0.2071079851920521  0.3531375735225399  0.2989086137170231
  0.1465052673414355  0.2855972352493723  0.3528134353295767
  0.7873441467157153  0.0109471804922320  0.6480730498639540
  0.8033963626991981  0.1186713189333430  0.6110346259100105
  0.0959277179295712  0.6524800896624542  0.6144363525754409
  0.0796221289363412  0.6940667281951449  0.6881024977820912
  0.1635046921667785  0.8582848420077684  0.3203144928670477
  0.1931673053691704  0.7694386965996349  0.3711607200297432
 
  0.00000000E+00  0.00000000E+00  0.00000000E+00
  0.00000000E+00  0.00000000E+00  0.00000000E+00
  0.00000000E+00  0.00000000E+00  0.00000000E+00
  0.00000000E+00  0.00000000E+00  0.00000000E+00
  0.00000000E+00  0.00000000E+00  0.00000000E+00
  0.00000000E+00  0.00000000E+00  0.00000000E+00
  0.00000000E+00  0.00000000E+00  0.00000000E+00
  0.00000000E+00  0.00000000E+00  0.00000000E+00
  0.00000000E+00  0.00000000E+00  0.00000000E+00
  0.00000000E+00  0.00000000E+00  0.00000000E+00
  0.00000000E+00  0.00000000E+00  0.00000000E+00
  0.00000000E+00  0.00000000E+00  0.00000000E+00
  0.00000000E+00  0.00000000E+00  0.00000000E+00
  0.00000000E+00  0.00000000E+00  0.00000000E+00
  0.00000000E+00  0.00000000E+00  0.00000000E+00
  0.00000000E+00  0.00000000E+00  0.00000000E+00
  0.00000000E+00  0.00000000E+00  0.00000000E+00
  0.00000000E+00  0.00000000E+00  0.00000000E+00
  0.00000000E+00  0.00000000E+00  0.00000000E+00
  0.00000000E+00  0.00000000E+00  0.00000000E+00
  0.00000000E+00  0.00000000E+00  0.00000000E+00
  0.00000000E+00  0.00000000E+00  0.00000000E+00
  0.00000000E+00  0.00000000E+00  0.00000000E+00
  0.00000000E+00  0.00000000E+00  0.00000000E+00
  0.00000000E+00  0.00000000E+00  0.00000000E+00
  0.00000000E+00  0.00000000E+00  0.00000000E+00
  0.00000000E+00  0.00000000E+00  0.00000000E+00
  0.00000000E+00  0.00000000E+00  0.00000000E+00
  0.00000000E+00  0.00000000E+00  0.00000000E+00
  0.00000000E+00  0.00000000E+00  0.00000000E+00
  0.00000000E+00  0.00000000E+00  0.00000000E+00
  0.00000000E+00  0.00000000E+00  0.00000000E+00
  0.00000000E+00  0.00000000E+00  0.00000000E+00
  0.00000000E+00  0.00000000E+00  0.00000000E+00
  0.00000000E+00  0.00000000E+00  0.00000000E+00
  0.00000000E+00  0.00000000E+00  0.00000000E+00
  0.00000000E+00  0.00000000E+00  0.00000000E+00
  0.00000000E+00  0.00000000E+00  0.00000000E+00
  0.00000000E+00  0.00000000E+00  0.00000000E+00
  0.00000000E+00  0.00000000E+00  0.00000000E+00
  0.00000000E+00  0.00000000E+00  0.00000000E+00
  0.00000000E+00  0.00000000E+00  0.00000000E+00
  0.00000000E+00  0.00000000E+00  0.00000000E+00
  0.00000000E+00  0.00000000E+00  0.00000000E+00
  0.00000000E+00  0.00000000E+00  0.00000000E+00
  0.00000000E+00  0.00000000E+00  0.00000000E+00
  0.00000000E+00  0.00000000E+00  0.00000000E+00
  0.00000000E+00  0.00000000E+00  0.00000000E+00
  0.00000000E+00  0.00000000E+00  0.00000000E+00
  0.00000000E+00  0.00000000E+00  0.00000000E+00
  0.00000000E+00  0.00000000E+00  0.00000000E+00
  0.00000000E+00  0.00000000E+00  0.00000000E+00
  0.00000000E+00  0.00000000E+00  0.00000000E+00
  0.00000000E+00  0.00000000E+00  0.00000000E+00
  0.00000000E+00  0.00000000E+00  0.00000000E+00
  0.00000000E+00  0.00000000E+00  0.00000000E+00
  0.00000000E+00  0.00000000E+00  0.00000000E+00
  0.00000000E+00  0.00000000E+00  0.00000000E+00
  0.00000000E+00  0.00000000E+00  0.00000000E+00
  0.00000000E+00  0.00000000E+00  0.00000000E+00
  0.00000000E+00  0.00000000E+00  0.00000000E+00
  0.00000000E+00  0.00000000E+00  0.00000000E+00
  0.00000000E+00  0.00000000E+00  0.00000000E+00
  0.00000000E+00  0.00000000E+00  0.00000000E+00
  0.00000000E+00  0.00000000E+00  0.00000000E+00
  0.00000000E+00  0.00000000E+00  0.00000000E+00
  0.00000000E+00  0.00000000E+00  0.00000000E+00
  0.00000000E+00  0.00000000E+00  0.00000000E+00
  0.00000000E+00  0.00000000E+00  0.00000000E+00
  0.00000000E+00  0.00000000E+00  0.00000000E+00
  0.00000000E+00  0.00000000E+00  0.00000000E+00
  0.00000000E+00  0.00000000E+00  0.00000000E+00
  0.00000000E+00  0.00000000E+00  0.00000000E+00
  0.00000000E+00  0.00000000E+00  0.00000000E+00
  0.00000000E+00  0.00000000E+00  0.00000000E+00
  0.00000000E+00  0.00000000E+00  0.00000000E+00
  0.00000000E+00  0.00000000E+00  0.00000000E+00
  0.00000000E+00  0.00000000E+00  0.00000000E+00
  0.00000000E+00  0.00000000E+00  0.00000000E+00
  0.00000000E+00  0.00000000E+00  0.00000000E+00
  0.00000000E+00  0.00000000E+00  0.00000000E+00
  0.00000000E+00  0.00000000E+00  0.00000000E+00
  0.00000000E+00  0.00000000E+00  0.00000000E+00
  0.00000000E+00  0.00000000E+00  0.00000000E+00
  0.00000000E+00  0.00000000E+00  0.00000000E+00
  0.00000000E+00  0.00000000E+00  0.00000000E+00
  0.00000000E+00  0.00000000E+00  0.00000000E+00
  0.00000000E+00  0.00000000E+00  0.00000000E+00
  0.00000000E+00  0.00000000E+00  0.00000000E+00
  0.00000000E+00  0.00000000E+00  0.00000000E+00
  0.00000000E+00  0.00000000E+00  0.00000000E+00
  0.00000000E+00  0.00000000E+00  0.00000000E+00
  0.00000000E+00  0.00000000E+00  0.00000000E+00
  0.00000000E+00  0.00000000E+00  0.00000000E+00
  0.00000000E+00  0.00000000E+00  0.00000000E+00
  0.00000000E+00  0.00000000E+00  0.00000000E+00
  0.00000000E+00  0.00000000E+00  0.00000000E+00
  0.00000000E+00  0.00000000E+00  0.00000000E+00
  0.00000000E+00  0.00000000E+00  0.00000000E+00
  0.00000000E+00  0.00000000E+00  0.00000000E+00
  0.00000000E+00  0.00000000E+00  0.00000000E+00
  0.00000000E+00  0.00000000E+00  0.00000000E+00
  0.00000000E+00  0.00000000E+00  0.00000000E+00
  0.00000000E+00  0.00000000E+00  0.00000000E+00
  0.00000000E+00  0.00000000E+00  0.00000000E+00
  0.00000000E+00  0.00000000E+00  0.00000000E+00
  0.00000000E+00  0.00000000E+00  0.00000000E+00
  0.00000000E+00  0.00000000E+00  0.00000000E+00
  0.00000000E+00  0.00000000E+00  0.00000000E+00
  0.00000000E+00  0.00000000E+00  0.00000000E+00
  0.00000000E+00  0.00000000E+00  0.00000000E+00
  0.00000000E+00  0.00000000E+00  0.00000000E+00
  0.00000000E+00  0.00000000E+00  0.00000000E+00
  0.00000000E+00  0.00000000E+00  0.00000000E+00
  0.00000000E+00  0.00000000E+00  0.00000000E+00
  0.00000000E+00  0.00000000E+00  0.00000000E+00
  0.00000000E+00  0.00000000E+00  0.00000000E+00
  0.00000000E+00  0.00000000E+00  0.00000000E+00
  0.00000000E+00  0.00000000E+00  0.00000000E+00
  0.00000000E+00  0.00000000E+00  0.00000000E+00
  0.00000000E+00  0.00000000E+00  0.00000000E+00
  0.00000000E+00  0.00000000E+00  0.00000000E+00
  0.00000000E+00  0.00000000E+00  0.00000000E+00
  0.00000000E+00  0.00000000E+00  0.00000000E+00
  0.00000000E+00  0.00000000E+00  0.00000000E+00
  0.00000000E+00  0.00000000E+00  0.00000000E+00
  0.00000000E+00  0.00000000E+00  0.00000000E+00
  0.00000000E+00  0.00000000E+00  0.00000000E+00
  0.00000000E+00  0.00000000E+00  0.00000000E+00
  0.00000000E+00  0.00000000E+00  0.00000000E+00
  0.00000000E+00  0.00000000E+00  0.00000000E+00
  0.00000000E+00  0.00000000E+00  0.00000000E+00
  0.00000000E+00  0.00000000E+00  0.00000000E+00
  0.00000000E+00  0.00000000E+00  0.00000000E+00
  0.00000000E+00  0.00000000E+00  0.00000000E+00
  0.00000000E+00  0.00000000E+00  0.00000000E+00
  0.00000000E+00  0.00000000E+00  0.00000000E+00
  0.00000000E+00  0.00000000E+00  0.00000000E+00
  0.00000000E+00  0.00000000E+00  0.00000000E+00
  0.00000000E+00  0.00000000E+00  0.00000000E+00
  0.00000000E+00  0.00000000E+00  0.00000000E+00
  0.00000000E+00  0.00000000E+00  0.00000000E+00
  0.00000000E+00  0.00000000E+00  0.00000000E+00
  0.00000000E+00  0.00000000E+00  0.00000000E+00
  0.00000000E+00  0.00000000E+00  0.00000000E+00
  0.00000000E+00  0.00000000E+00  0.00000000E+00
  0.00000000E+00  0.00000000E+00  0.00000000E+00
  0.00000000E+00  0.00000000E+00  0.00000000E+00
  0.00000000E+00  0.00000000E+00  0.00000000E+00
  0.00000000E+00  0.00000000E+00  0.00000000E+00
  0.00000000E+00  0.00000000E+00  0.00000000E+00
  0.00000000E+00  0.00000000E+00  0.00000000E+00
  0.00000000E+00  0.00000000E+00  0.00000000E+00
  0.00000000E+00  0.00000000E+00  0.00000000E+00
  0.00000000E+00  0.00000000E+00  0.00000000E+00
  0.00000000E+00  0.00000000E+00  0.00000000E+00
  0.00000000E+00  0.00000000E+00  0.00000000E+00
  0.00000000E+00  0.00000000E+00  0.00000000E+00
  0.00000000E+00  0.00000000E+00  0.00000000E+00
  0.00000000E+00  0.00000000E+00  0.00000000E+00
  0.00000000E+00  0.00000000E+00  0.00000000E+00
  0.00000000E+00  0.00000000E+00  0.00000000E+00
  0.00000000E+00  0.00000000E+00  0.00000000E+00
  0.00000000E+00  0.00000000E+00  0.00000000E+00
  0.00000000E+00  0.00000000E+00  0.00000000E+00
  0.00000000E+00  0.00000000E+00  0.00000000E+00
  0.00000000E+00  0.00000000E+00  0.00000000E+00
  0.00000000E+00  0.00000000E+00  0.00000000E+00
  0.00000000E+00  0.00000000E+00  0.00000000E+00
  0.00000000E+00  0.00000000E+00  0.00000000E+00
  0.00000000E+00  0.00000000E+00  0.00000000E+00
  0.00000000E+00  0.00000000E+00  0.00000000E+00
  0.00000000E+00  0.00000000E+00  0.00000000E+00
  0.00000000E+00  0.00000000E+00  0.00000000E+00
  0.00000000E+00  0.00000000E+00  0.00000000E+00
  0.00000000E+00  0.00000000E+00  0.00000000E+00
  0.00000000E+00  0.00000000E+00  0.00000000E+00
  0.00000000E+00  0.00000000E+00  0.00000000E+00
  0.00000000E+00  0.00000000E+00  0.00000000E+00
  0.00000000E+00  0.00000000E+00  0.00000000E+00
  0.00000000E+00  0.00000000E+00  0.00000000E+00
  0.00000000E+00  0.00000000E+00  0.00000000E+00
  0.00000000E+00  0.00000000E+00  0.00000000E+00
  0.00000000E+00  0.00000000E+00  0.00000000E+00
  0.00000000E+00  0.00000000E+00  0.00000000E+00
  0.00000000E+00  0.00000000E+00  0.00000000E+00
  0.00000000E+00  0.00000000E+00  0.00000000E+00
  0.00000000E+00  0.00000000E+00  0.00000000E+00
  0.00000000E+00  0.00000000E+00  0.00000000E+00
  0.00000000E+00  0.00000000E+00  0.00000000E+00
  0.00000000E+00  0.00000000E+00  0.00000000E+00
  0.00000000E+00  0.00000000E+00  0.00000000E+00
  0.00000000E+00  0.00000000E+00  0.00000000E+00
  0.00000000E+00  0.00000000E+00  0.00000000E+00
  0.00000000E+00  0.00000000E+00  0.00000000E+00
  0.00000000E+00  0.00000000E+00  0.00000000E+00
  0.00000000E+00  0.00000000E+00  0.00000000E+00
