 C  N Cr  O  H                          
   1.00000000000000     
    12.4758271999999995    0.0000000000000000    0.0000000000000000
     0.0000000000000000   12.7377722999999996    0.0000000000000000
     0.0000000000000000    0.0000000000000000   30.0000000000000000
   C    N    Cr   O    H 
    54     4     1    46    92
Direct
  0.9963788321809527  0.0737883542436508  0.0985167126122765
  0.0969104119651254  0.1286867125426540  0.0982706705071031
  0.0964331095233118  0.2401056369407650  0.0962970193924433
  0.9962543152580070  0.2954507817824782  0.0943331496647874
  0.1972749103034386  0.0741634809183401  0.1005907875360229
  0.2974438419971501  0.1300644153204701  0.1019782906644983
  0.2961885654758794  0.2418469767971638  0.1016352471067654
  0.1954191156971176  0.2955753789202473  0.0984358130587440
  0.3977119671397165  0.0746714430394534  0.1042824244360260
  0.4963663324009224  0.1337060766798853  0.1047136480474174
  0.4962547716335965  0.2473230176273075  0.1051911420942279
  0.3936222789724076  0.3019479824878805  0.1054431553917553
  0.5950063173168134  0.0747963565960765  0.1038930412340163
  0.6951788294907744  0.1302693997280278  0.1013803876505605
  0.6963661316204760  0.2420310653292943  0.0999399072351054
  0.5987990786189719  0.3022812395294607  0.1029460701840174
  0.7954272723296747  0.0744949399474446  0.1002705803659645
  0.8957890392841298  0.1289320048297224  0.0980713916868460
  0.8962408320259038  0.2402024808526735  0.0958136035441760
  0.7971446094830579  0.2956277219769090  0.0964748485940810
 -0.0036053878662047  0.4066501581011730  0.0932664744367004
  0.0948414089720353  0.4628321036281215  0.0954659868076013
  0.0949067945958862  0.5741961864083609  0.0968794507639412
  0.9964845744456285  0.6305114718391820  0.0959724188490154
  0.1935013583051106  0.4073658393271058  0.0987321277547682
  0.2909231212469869  0.4619466652883927  0.1043487525125989
  0.2910429865877885  0.5744258739166146  0.1054232014611670
  0.1934632688460226  0.6293747213534016  0.1011879749173821
  0.7009744319822829  0.4621120520809049  0.0991098471628064
  0.7011701216478162  0.5747666895290804  0.1010794297918138
  0.7989032594156316  0.4073775743620875  0.0950836697947125
  0.8978067854739248  0.4628201991384037  0.0930731142667446
  0.8979034640644961  0.5743943636453417  0.0944678175318130
  0.7990196978377596  0.6296794433595747  0.0978003315801163
  0.9964635289149067  0.7413939617453229  0.0984976398416998
  0.0963053361988358  0.7965292513551835  0.1004844706692733
  0.9964707443753538  0.9631236793976304  0.0997410678200103
  0.1952184193579391  0.7410557031937043  0.1022391202736997
  0.2961914569577906  0.7944844870302675  0.1047173628981175
  0.2974096636228943  0.9063033631000060  0.1039055321340091
  0.1972726679759579  0.9623086108608454  0.1017809526760288
  0.3938138554196021  0.7343088876909271  0.1081988382465331
  0.4965093761602426  0.7892910441911417  0.1080762932725320
  0.4964518043783089  0.9029266960988657  0.1064090769686886
  0.3977103825726579  0.9618281115001827  0.1051454954065264
  0.5989724767334687  0.7347250076890772  0.1066751204057343
  0.6964366809690016  0.7948963983638090  0.1031412732913307
  0.6951966834700635  0.9067291776933768  0.1031884873171889
  0.5949897906499941  0.9621121372768859  0.1047950298202152
  0.7973924066650891  0.7413358324338746  0.1002345516878325
  0.8964880224631183  0.7965640162908701  0.0995570036630422
  0.7953911143075796  0.9626264810487074  0.1012757097750525
  0.0969148980388911  0.9079069341488196  0.1007582485095228
  0.8959514197584117  0.9080772870202529  0.1002188700544987
  0.3870325949661119  0.4090386703454571  0.1089508258853823
  0.3876570457243950  0.6267524073021794  0.1107702248108336
  0.6048526269445601  0.4094996264622582  0.1034226548510916
  0.6054281565049842  0.6270398122039671  0.1080887453049522
  0.4974864574525882  0.5172462951764258  0.1218863994269065
  0.5232949026247496  0.4690847070451952  0.1922454235885184
  0.8202803071304960  0.0546224549959286  0.2702149188906781
  0.9419686370919268  0.7431907873834535  0.2637492320920378
  0.5382807860568921  0.8376231719669512  0.2374291186454031
  0.1425320035566193  0.9030889259766790  0.2322037967127669
  0.6615072910058210  0.2967373232853938  0.2345323387010288
  0.6864541710778039  0.1230742453006687  0.4521171905769870
  0.6725342295401694  0.5402841856228415  0.2485401148344470
  0.3369470266552005  0.0071583498626954  0.2135285693604340
  0.5114240142888906  0.1886341108575533  0.3281618392920768
  0.1709096537271010  0.5266180994222391  0.4319240254017632
  0.7886862056522905  0.2022442211304108  0.3772321739506536
  0.7213938340400592  0.7426239991640700  0.2807738798569027
  0.2675050030290748  0.2109510533823963  0.2339099856224487
  0.0743164528003527  0.8291496166214154  0.4637465059314551
  0.8992347748669898  0.7099545554245574  0.4300158018888319
  0.7859711372040450  0.9191683957491538  0.4324837774950769
  1.0003447698028867  0.3952489964333036  0.3077627929632015
  0.1826812198867133  0.6894264847415880  0.2443823512127811
  0.3274825111352181  0.4050225676204910  0.3907844256042626
  0.5909451449743151  0.0756801272778316  0.2543598490754823
  0.3605669854307103  0.4150747988855174  0.2461170441266549
  0.1551502345785473  0.2742383372328790  0.3578400337323267
  0.8573759405827858  0.4999061711594688  0.2013839238130161
  0.1907254243605967  0.0963155388180597  0.3083976562907568
  0.4988706469666054  0.9200082400711788  0.3683842275754641
  0.4046284798403190  0.7431673667572185  0.4038359058193385
  0.7090678830528837  0.9074455185756179  0.3448776452517661
 -0.0074492872978630  0.2281740476896809  0.4174101817484652
  0.8318251041754541  0.4951149018758508  0.3565288932640410
  0.5163253263067984  0.3780674217322256  0.4471502847681646
  0.3918836556389729  0.7094587248142084  0.2886344872448775
  0.9684992503918489  0.0245691917958859  0.3377418516586754
  0.1819419243210720  0.7317980949511985  0.3931986807968848
  0.0657239480604798  0.5111626115306611  0.2325833399859741
  0.9271252731463703  0.4565319089430725  0.4418270307702877
  0.8831501742929051  0.2596889596289190  0.2492967871544162
  0.9933788520205119  0.8095852302827925  0.3476598693588983
  0.7450802594823100  0.3497547803665715  0.4784121154450819
  0.6523318463477954  0.3832605128727870  0.3272517617529494
  0.0743317933637619  0.3056326920504979  0.2009411057369586
  0.3373563219401294  0.9365684731162723  0.3046310178020618
  0.4863557819372560  0.1049363790742949  0.4170702863592587
  0.9153127691432312  0.9184606942588407  0.2100445659164542
  0.9784956997379654  0.0170648948311186  0.4588675088370858
  0.4581975765843616  0.5028769054014003  0.3274682650093168
  0.5729369607296357  0.5085600548741729  0.2125526023627858
  0.4590554790171186  0.4493753116113225  0.2107578898154019
  0.8434923715081523  0.1267577810430103  0.2617173141065110
  0.8485153474580982  0.0080058605312114  0.2463134641392047
  0.9672161105828093  0.7678792866281505  0.2935768478145108
 -0.0043488463158090  0.6925159920393986  0.2538888630879094
  0.5445307102357224  0.9135314472751660  0.2425131995432126
  0.6083160864406081  0.8089656367319502  0.2463142238284436
  0.0796532420229020  0.9248843088470415  0.2151108124889733
  0.2047916750928542  0.9417291318027909  0.2203480231409206
  0.6178805350678218  0.3416237556340657  0.2150802147552708
  0.6272626286914872  0.2270627353733820  0.2345910852062384
  0.7224041092509691  0.1502674615836342  0.4247826353931140
  0.7129289852952378  0.0507961731646404  0.4549803988626830
  0.6763552491662632  0.6104576413135336  0.2620579680241066
  0.7416356282339749  0.5307950650937129  0.2326382071780286
  0.3821457575219520 -0.0068788554210653  0.1877586051090581
  0.3237752875404257  0.0838355391891953  0.2140842283645112
  0.5561383754894279  0.2516510015484072  0.3305736639963630
  0.5025601009874953  0.1631991645244828  0.3589369330082931
  0.0978487593902602  0.5009508509319489  0.4363875899055388
  0.1646445554194615  0.5941361148720706  0.4160036696876294
  0.7510449923593500  0.2626826732428543  0.3646896290072729
  0.8582778599962476  0.2277920106228915  0.3886912558811907
  0.7180591543709905  0.7930049174317987  0.3057700591665776
  0.7976917014539191  0.7383724023718155  0.2722671331914115
  0.2034104144415018  0.2394964552984978  0.2188393244792933
  0.2382545383585128  0.1764241460651849  0.2608936340766205
  0.1013624100312709  0.8204205500666389  0.4938939465704518
  0.0488317593796707  0.9038974810289879  0.4615444476194563
  0.8996587953438065  0.6354563984378608  0.4381687483091321
  0.9606781996166083  0.7411377047128727  0.4460454869236752
  0.7634085847653512  0.9167978190837511  0.4007586533393154
  0.8007372697942118  0.8458545324385527  0.4401475732241089
  0.9554890632985878  0.3470511225057297  0.2897255767746318
  0.9477992382802778  0.4347800397051229  0.3257517129583825
  0.1690014346631882  0.7647010711561092  0.2378514642255306
  0.2559094230909525  0.6865563806211818  0.2564727434326561
  0.2827541353799979  0.3508499202175645  0.3763497450068223
  0.2732269512607950  0.4481501685293743  0.4068227386563635
  0.5607421274093427  0.1061560430447619  0.2820900219540618
  0.6675962722541072  0.0648633753645033  0.2607251607839721
  0.3903003885607119  0.4300163865609863  0.2757933655552016
  0.3378369683477357  0.3408366970942880  0.2459546203553281
  0.1097777516141465  0.3172887201391634  0.3379370896237839
  0.1734258486532744  0.2095598263175371  0.3407845150135083
  0.8553935583358803  0.5189199834077023  0.1699881958334692
  0.9319596796801383  0.5134202009796297  0.2111363877846184
  0.2446958479034079  0.0384062972340611  0.3105069827114409
  0.1207427096682110  0.0614213634840811  0.3082682736664517
  0.4874158799769795  0.9778151537362068  0.3898628196433336
  0.4688287762831408  0.8551911296116570  0.3822364009603991
  0.3268466218416726  0.7394221337083864  0.3971810862337579
  0.4338686565439431  0.6755545398856189  0.3948966815406015
  0.7285212786757702  0.9671561689062829  0.3260893247825010
  0.6306698535136390  0.9147581148159516  0.3517186030371312
  0.0547050841852622  0.2408840792624025  0.3970513720977088
 -0.0160497193318256  0.2948358136373400  0.4334197238380070
  0.7652087836372620  0.4595634395368969  0.3458358058004259
  0.8205249451175713  0.5696535775362630  0.3510713773881646
  0.4868646739757878  0.4041880172396466  0.4750409810903566
  0.4558505636824017  0.3828151361932829  0.4260177575243855
  0.3614135294518514  0.7681649345777793  0.3055739445202172
  0.4428887641793505  0.7466774907238382  0.2688137396731844
  0.9122748722886461  0.0367165006758982  0.3147024150279396
  0.9483678206595302  0.0699508354099389  0.3624928640990547
  0.1363097683093790  0.7549751703456181  0.3683344126881718
  0.1526646839256012  0.7717686530964954  0.4187589181212112
  0.0558935155867818  0.4840457257234519  0.2631972891577595
  0.1178460718996749  0.5703718791506427  0.2340984469816240
  0.8944739573073002  0.4633586764808286  0.4120304444801972
  0.8686271123569621  0.4248273834848184  0.4596442395909681
  0.8156956868588193  0.2892108311035789  0.2374441367386892
  0.9392280027430795  0.2711374285616984  0.2265111355693627
  0.9487378567068599  0.7794922546748690  0.3713847057652360
  0.9822322921910093  0.8869552943036753  0.3482565159351034
  0.6772252015871340  0.3667694829114866  0.4635787367516878
  0.7428967178910969  0.2731527075803203  0.4806336858028688
  0.5907127517178894  0.4322548210402460  0.3293774519072556
  0.6615639710774444  0.3736927777199976  0.2948168783239666
  0.0826518406954661  0.3817018233119192  0.2075184724963258
  0.0675454285710504  0.3007935332480126  0.1685902785098740
  0.4019864454963361  0.9421989741638944  0.3236031456544721
  0.3594341149440812  0.9517603603400147  0.2738024016974199
  0.4312839495124687  0.1414110845631942  0.4339415209673650
  0.5554614422617139  0.1156295157602218  0.4335459949288062
  0.9221037604151907  0.8503224164210086  0.2259839520250405
  0.8869285361398951  0.9031430357621281  0.1804787731321992
  0.9074025138508085 -0.0052212081632305  0.4478682026814609
 -0.0084512613534222  0.0883389326917611  0.4476421934218767
  0.4370609109344673  0.5735268574357887  0.3174050301084594
  0.4052443571440728  0.4781933128055985  0.3498498677968049
 
  0.00000000E+00  0.00000000E+00  0.00000000E+00
  0.00000000E+00  0.00000000E+00  0.00000000E+00
  0.00000000E+00  0.00000000E+00  0.00000000E+00
  0.00000000E+00  0.00000000E+00  0.00000000E+00
  0.00000000E+00  0.00000000E+00  0.00000000E+00
  0.00000000E+00  0.00000000E+00  0.00000000E+00
  0.00000000E+00  0.00000000E+00  0.00000000E+00
  0.00000000E+00  0.00000000E+00  0.00000000E+00
  0.00000000E+00  0.00000000E+00  0.00000000E+00
  0.00000000E+00  0.00000000E+00  0.00000000E+00
  0.00000000E+00  0.00000000E+00  0.00000000E+00
  0.00000000E+00  0.00000000E+00  0.00000000E+00
  0.00000000E+00  0.00000000E+00  0.00000000E+00
  0.00000000E+00  0.00000000E+00  0.00000000E+00
  0.00000000E+00  0.00000000E+00  0.00000000E+00
  0.00000000E+00  0.00000000E+00  0.00000000E+00
  0.00000000E+00  0.00000000E+00  0.00000000E+00
  0.00000000E+00  0.00000000E+00  0.00000000E+00
  0.00000000E+00  0.00000000E+00  0.00000000E+00
  0.00000000E+00  0.00000000E+00  0.00000000E+00
  0.00000000E+00  0.00000000E+00  0.00000000E+00
  0.00000000E+00  0.00000000E+00  0.00000000E+00
  0.00000000E+00  0.00000000E+00  0.00000000E+00
  0.00000000E+00  0.00000000E+00  0.00000000E+00
  0.00000000E+00  0.00000000E+00  0.00000000E+00
  0.00000000E+00  0.00000000E+00  0.00000000E+00
  0.00000000E+00  0.00000000E+00  0.00000000E+00
  0.00000000E+00  0.00000000E+00  0.00000000E+00
  0.00000000E+00  0.00000000E+00  0.00000000E+00
  0.00000000E+00  0.00000000E+00  0.00000000E+00
  0.00000000E+00  0.00000000E+00  0.00000000E+00
  0.00000000E+00  0.00000000E+00  0.00000000E+00
  0.00000000E+00  0.00000000E+00  0.00000000E+00
  0.00000000E+00  0.00000000E+00  0.00000000E+00
  0.00000000E+00  0.00000000E+00  0.00000000E+00
  0.00000000E+00  0.00000000E+00  0.00000000E+00
  0.00000000E+00  0.00000000E+00  0.00000000E+00
  0.00000000E+00  0.00000000E+00  0.00000000E+00
  0.00000000E+00  0.00000000E+00  0.00000000E+00
  0.00000000E+00  0.00000000E+00  0.00000000E+00
  0.00000000E+00  0.00000000E+00  0.00000000E+00
  0.00000000E+00  0.00000000E+00  0.00000000E+00
  0.00000000E+00  0.00000000E+00  0.00000000E+00
  0.00000000E+00  0.00000000E+00  0.00000000E+00
  0.00000000E+00  0.00000000E+00  0.00000000E+00
  0.00000000E+00  0.00000000E+00  0.00000000E+00
  0.00000000E+00  0.00000000E+00  0.00000000E+00
  0.00000000E+00  0.00000000E+00  0.00000000E+00
  0.00000000E+00  0.00000000E+00  0.00000000E+00
  0.00000000E+00  0.00000000E+00  0.00000000E+00
  0.00000000E+00  0.00000000E+00  0.00000000E+00
  0.00000000E+00  0.00000000E+00  0.00000000E+00
  0.00000000E+00  0.00000000E+00  0.00000000E+00
  0.00000000E+00  0.00000000E+00  0.00000000E+00
  0.00000000E+00  0.00000000E+00  0.00000000E+00
  0.00000000E+00  0.00000000E+00  0.00000000E+00
  0.00000000E+00  0.00000000E+00  0.00000000E+00
  0.00000000E+00  0.00000000E+00  0.00000000E+00
  0.00000000E+00  0.00000000E+00  0.00000000E+00
  0.00000000E+00  0.00000000E+00  0.00000000E+00
  0.00000000E+00  0.00000000E+00  0.00000000E+00
  0.00000000E+00  0.00000000E+00  0.00000000E+00
  0.00000000E+00  0.00000000E+00  0.00000000E+00
  0.00000000E+00  0.00000000E+00  0.00000000E+00
  0.00000000E+00  0.00000000E+00  0.00000000E+00
  0.00000000E+00  0.00000000E+00  0.00000000E+00
  0.00000000E+00  0.00000000E+00  0.00000000E+00
  0.00000000E+00  0.00000000E+00  0.00000000E+00
  0.00000000E+00  0.00000000E+00  0.00000000E+00
  0.00000000E+00  0.00000000E+00  0.00000000E+00
  0.00000000E+00  0.00000000E+00  0.00000000E+00
  0.00000000E+00  0.00000000E+00  0.00000000E+00
  0.00000000E+00  0.00000000E+00  0.00000000E+00
  0.00000000E+00  0.00000000E+00  0.00000000E+00
  0.00000000E+00  0.00000000E+00  0.00000000E+00
  0.00000000E+00  0.00000000E+00  0.00000000E+00
  0.00000000E+00  0.00000000E+00  0.00000000E+00
  0.00000000E+00  0.00000000E+00  0.00000000E+00
  0.00000000E+00  0.00000000E+00  0.00000000E+00
  0.00000000E+00  0.00000000E+00  0.00000000E+00
  0.00000000E+00  0.00000000E+00  0.00000000E+00
  0.00000000E+00  0.00000000E+00  0.00000000E+00
  0.00000000E+00  0.00000000E+00  0.00000000E+00
  0.00000000E+00  0.00000000E+00  0.00000000E+00
  0.00000000E+00  0.00000000E+00  0.00000000E+00
  0.00000000E+00  0.00000000E+00  0.00000000E+00
  0.00000000E+00  0.00000000E+00  0.00000000E+00
  0.00000000E+00  0.00000000E+00  0.00000000E+00
  0.00000000E+00  0.00000000E+00  0.00000000E+00
  0.00000000E+00  0.00000000E+00  0.00000000E+00
  0.00000000E+00  0.00000000E+00  0.00000000E+00
  0.00000000E+00  0.00000000E+00  0.00000000E+00
  0.00000000E+00  0.00000000E+00  0.00000000E+00
  0.00000000E+00  0.00000000E+00  0.00000000E+00
  0.00000000E+00  0.00000000E+00  0.00000000E+00
  0.00000000E+00  0.00000000E+00  0.00000000E+00
  0.00000000E+00  0.00000000E+00  0.00000000E+00
  0.00000000E+00  0.00000000E+00  0.00000000E+00
  0.00000000E+00  0.00000000E+00  0.00000000E+00
  0.00000000E+00  0.00000000E+00  0.00000000E+00
  0.00000000E+00  0.00000000E+00  0.00000000E+00
  0.00000000E+00  0.00000000E+00  0.00000000E+00
  0.00000000E+00  0.00000000E+00  0.00000000E+00
  0.00000000E+00  0.00000000E+00  0.00000000E+00
  0.00000000E+00  0.00000000E+00  0.00000000E+00
  0.00000000E+00  0.00000000E+00  0.00000000E+00
  0.00000000E+00  0.00000000E+00  0.00000000E+00
  0.00000000E+00  0.00000000E+00  0.00000000E+00
  0.00000000E+00  0.00000000E+00  0.00000000E+00
  0.00000000E+00  0.00000000E+00  0.00000000E+00
  0.00000000E+00  0.00000000E+00  0.00000000E+00
  0.00000000E+00  0.00000000E+00  0.00000000E+00
  0.00000000E+00  0.00000000E+00  0.00000000E+00
  0.00000000E+00  0.00000000E+00  0.00000000E+00
  0.00000000E+00  0.00000000E+00  0.00000000E+00
  0.00000000E+00  0.00000000E+00  0.00000000E+00
  0.00000000E+00  0.00000000E+00  0.00000000E+00
  0.00000000E+00  0.00000000E+00  0.00000000E+00
  0.00000000E+00  0.00000000E+00  0.00000000E+00
  0.00000000E+00  0.00000000E+00  0.00000000E+00
  0.00000000E+00  0.00000000E+00  0.00000000E+00
  0.00000000E+00  0.00000000E+00  0.00000000E+00
  0.00000000E+00  0.00000000E+00  0.00000000E+00
  0.00000000E+00  0.00000000E+00  0.00000000E+00
  0.00000000E+00  0.00000000E+00  0.00000000E+00
  0.00000000E+00  0.00000000E+00  0.00000000E+00
  0.00000000E+00  0.00000000E+00  0.00000000E+00
  0.00000000E+00  0.00000000E+00  0.00000000E+00
  0.00000000E+00  0.00000000E+00  0.00000000E+00
  0.00000000E+00  0.00000000E+00  0.00000000E+00
  0.00000000E+00  0.00000000E+00  0.00000000E+00
  0.00000000E+00  0.00000000E+00  0.00000000E+00
  0.00000000E+00  0.00000000E+00  0.00000000E+00
  0.00000000E+00  0.00000000E+00  0.00000000E+00
  0.00000000E+00  0.00000000E+00  0.00000000E+00
  0.00000000E+00  0.00000000E+00  0.00000000E+00
  0.00000000E+00  0.00000000E+00  0.00000000E+00
  0.00000000E+00  0.00000000E+00  0.00000000E+00
  0.00000000E+00  0.00000000E+00  0.00000000E+00
  0.00000000E+00  0.00000000E+00  0.00000000E+00
  0.00000000E+00  0.00000000E+00  0.00000000E+00
  0.00000000E+00  0.00000000E+00  0.00000000E+00
  0.00000000E+00  0.00000000E+00  0.00000000E+00
  0.00000000E+00  0.00000000E+00  0.00000000E+00
  0.00000000E+00  0.00000000E+00  0.00000000E+00
  0.00000000E+00  0.00000000E+00  0.00000000E+00
  0.00000000E+00  0.00000000E+00  0.00000000E+00
  0.00000000E+00  0.00000000E+00  0.00000000E+00
  0.00000000E+00  0.00000000E+00  0.00000000E+00
  0.00000000E+00  0.00000000E+00  0.00000000E+00
  0.00000000E+00  0.00000000E+00  0.00000000E+00
  0.00000000E+00  0.00000000E+00  0.00000000E+00
  0.00000000E+00  0.00000000E+00  0.00000000E+00
  0.00000000E+00  0.00000000E+00  0.00000000E+00
  0.00000000E+00  0.00000000E+00  0.00000000E+00
  0.00000000E+00  0.00000000E+00  0.00000000E+00
  0.00000000E+00  0.00000000E+00  0.00000000E+00
  0.00000000E+00  0.00000000E+00  0.00000000E+00
  0.00000000E+00  0.00000000E+00  0.00000000E+00
  0.00000000E+00  0.00000000E+00  0.00000000E+00
  0.00000000E+00  0.00000000E+00  0.00000000E+00
  0.00000000E+00  0.00000000E+00  0.00000000E+00
  0.00000000E+00  0.00000000E+00  0.00000000E+00
  0.00000000E+00  0.00000000E+00  0.00000000E+00
  0.00000000E+00  0.00000000E+00  0.00000000E+00
  0.00000000E+00  0.00000000E+00  0.00000000E+00
  0.00000000E+00  0.00000000E+00  0.00000000E+00
  0.00000000E+00  0.00000000E+00  0.00000000E+00
  0.00000000E+00  0.00000000E+00  0.00000000E+00
  0.00000000E+00  0.00000000E+00  0.00000000E+00
  0.00000000E+00  0.00000000E+00  0.00000000E+00
  0.00000000E+00  0.00000000E+00  0.00000000E+00
  0.00000000E+00  0.00000000E+00  0.00000000E+00
  0.00000000E+00  0.00000000E+00  0.00000000E+00
  0.00000000E+00  0.00000000E+00  0.00000000E+00
  0.00000000E+00  0.00000000E+00  0.00000000E+00
  0.00000000E+00  0.00000000E+00  0.00000000E+00
  0.00000000E+00  0.00000000E+00  0.00000000E+00
  0.00000000E+00  0.00000000E+00  0.00000000E+00
  0.00000000E+00  0.00000000E+00  0.00000000E+00
  0.00000000E+00  0.00000000E+00  0.00000000E+00
  0.00000000E+00  0.00000000E+00  0.00000000E+00
  0.00000000E+00  0.00000000E+00  0.00000000E+00
  0.00000000E+00  0.00000000E+00  0.00000000E+00
  0.00000000E+00  0.00000000E+00  0.00000000E+00
  0.00000000E+00  0.00000000E+00  0.00000000E+00
  0.00000000E+00  0.00000000E+00  0.00000000E+00
  0.00000000E+00  0.00000000E+00  0.00000000E+00
  0.00000000E+00  0.00000000E+00  0.00000000E+00
  0.00000000E+00  0.00000000E+00  0.00000000E+00
  0.00000000E+00  0.00000000E+00  0.00000000E+00
  0.00000000E+00  0.00000000E+00  0.00000000E+00
  0.00000000E+00  0.00000000E+00  0.00000000E+00
  0.00000000E+00  0.00000000E+00  0.00000000E+00
  0.00000000E+00  0.00000000E+00  0.00000000E+00
  0.00000000E+00  0.00000000E+00  0.00000000E+00
  0.00000000E+00  0.00000000E+00  0.00000000E+00
