 C  N Mn  O  H                          
   1.00000000000000     
    12.5075085000000001    0.0000000000000000    0.0000000000000000
     0.0000000000000000   12.7423731000000000    0.0000000000000000
     0.0000000000000000    0.0000000000000000   30.0000000000000000
   C    N    Mn   O    H 
    54     4     1    46    91
Direct
  0.0597217375246347  0.1968117366806392  0.0885088589494142
  0.1603916398772648  0.2520449546708425  0.0884186537245068
  0.1596866675643947  0.3632956761623424  0.0871709703201797
  0.0597037083612790  0.4184534321905495  0.0858951167613662
  0.2608823608470232  0.1973423359336567  0.0894267543346424
  0.3610063599618053  0.2534005856877447  0.0900865731765835
  0.3597055767357668  0.3652628220061264  0.0895097566731343
  0.2588905107536265  0.4188422668048516  0.0875286272695414
  0.4611934210199689  0.1977293983175166  0.0912919829465406
  0.5597003971629402  0.2566901149878925  0.0918851218075392
  0.5596634670360796  0.3703491857550720  0.0923911944132660
  0.4576957707027817  0.4255807407786657  0.0916115838208636
  0.6582021230962138  0.1978205360976353  0.0915126901241508
  0.7583260807307382  0.2534887641235436  0.0902834937073622
  0.7595055298075174  0.3652970309442518  0.0897745619255512
  0.6615246457559038  0.4255912586589262  0.0920187707874093
  0.8585811043465281  0.1974399564759184  0.0895856559531435
  0.9590995492827773  0.2520163686653072  0.0883914989100337
  0.9597366334265991  0.3633450845873736  0.0871547327398693
  0.8604653484176095  0.4187672231042038  0.0877340347505879
  0.0598101028575642  0.5294049060534047  0.0843053895246738
  0.1582719343008623  0.5857653494317742  0.0845492496402028
  0.1581691949023499  0.6969715096552211  0.0849418504170651
  0.0597526807952147  0.7534148928743697  0.0851376375246980
  0.2571671313546288  0.5303007287179543  0.0862793510737868
  0.3550173823423631  0.5853744498822919  0.0885486729537948
  0.3549649622622283  0.6973281122101503  0.0884597091310096
  0.2570569276695889  0.7524594247717414  0.0866883650307561
  0.7643138333869043  0.5855122819801128  0.0894917761086021
  0.7644266395870644  0.6974448036882271  0.0895677544434514
  0.8621140381170712  0.5303003484537299  0.0865904319877221
  0.9611760565334542  0.5857435437588543  0.0844117960286893
  0.9612357579313089  0.6972037660888691  0.0849925011059820
  0.8623501687099209  0.7526067457955788  0.0872993569047158
  0.0597249163479863  0.8643266785397380  0.0868723597244943
  0.1596380520268467  0.9194783115065447  0.0879158542194404
  0.0597480784168309  0.0858524069156740  0.0889261300483605
  0.2588374620542695  0.8639807234892056  0.0879868472223752
  0.3596929649310990  0.9176309590933894  0.0896147135037491
  0.3609735079098783  0.0294436186914805  0.0900981760419995
  0.2608648206885822  0.0853849702907856  0.0895269397510763
  0.4576614463290578  0.8572931719300616  0.0914494297643327
  0.5597746710639581  0.9125263656215782  0.0926794162416833
  0.5597226710315344  0.0262452078230598  0.0921469716220866
  0.4611602800949737  0.0850862676458220  0.0913157975940668
  0.6617730485985642  0.8573432045311490  0.0922459253984496
  0.7597578574109278  0.9176609655496100  0.0904655797403709
  0.7584377418133893  0.0294881258345059  0.0908008712334523
  0.6582341906136646  0.0851617243639217  0.0917036390701180
  0.8607072691358186  0.8641103402006136  0.0886468045378159
  0.9598966253622315  0.9194864211156474  0.0881657251125096
  0.8587018439591293  0.0854715319489892  0.0899444184598408
  0.1603355827999874  0.0307343985737409  0.0889217635322424
  0.9592373990759968  0.0307977626705961  0.0891377829007243
  0.4516173322419222  0.5328220272458409  0.0924864466951606
  0.4516085661352839  0.7501151163802574  0.0916487240763276
  0.6674886737673247  0.5329774913659918  0.0934111963753616
  0.6677692804005949  0.7500611714009886  0.0930087812901425
  0.5591495940222215  0.6418361142691785  0.1072596277181410
  0.9521207874615545  0.5904259811125090  0.1917118373345908
  0.7924474012950750  0.5734594601912159  0.3019088008357322
  0.1802736922095406  0.0840557860465008  0.2498255727520032
  0.8522827664768483  0.0878147957026731  0.2373801703537145
  0.7323763360423122  0.5293261492159614  0.2115986971830149
  0.7031005368740153  0.6370803487105061  0.3817872209522194
  0.4209295158272331  0.8004726033025784  0.2078877084713188
  0.4388583006057835  0.4467224006463750  0.2180485203817457
  0.0493455728709027  0.3562197666260337  0.3621930971889177
  0.9534880662448796  0.8494835754329392  0.4594495326404812
  0.5542351397585951  0.1584437503867597  0.3038308601867483
  0.0926267678637636  0.7050450546125023  0.2369589154086551
  0.0272242323454116  0.3910691292506369  0.2271036169681297
  0.8971913858214504  0.2026159678476846  0.3941260491230814
  0.4152892332162320  0.4393503169953433  0.3732827515609507
  0.8262732705955862  0.7956596448240756  0.2275654144250579
  0.6172528991108754  0.3996110387308939  0.3439011983387810
  0.1558379601824837  0.9584004315484164  0.3303823050417292
  0.4185276756774851  0.7716986728612848  0.4185343664594059
  0.6334753409070889  0.3300059097588804  0.1971211024604063
  0.2740499607971176  0.6017042441195715  0.1928728903768603
  0.8919674957322815  0.3850901725833026  0.2997743189807272
  0.6207117494064456  0.8777475552814817  0.2420729050484987
  0.8542118757065169  0.8604368561886445  0.3313298380554304
  0.5218046260880107  0.5752231640850234  0.4350573166712474
  0.6941098860187545  0.3083013615758470  0.4174766057123337
  0.3701929156174244  0.0262122326564032  0.2072019837223086
  0.3195656476244125  0.0502539918614044  0.3900792524223537
  0.5425717602982566  0.5883462713828437  0.2859262608615358
  0.3974456470627137  0.3146519575095129  0.2927740546555609
  0.3289772469129722  0.8089427922723500  0.3005490778702282
  0.6137941592097361  0.0893448289754656  0.2184576207142700
  0.2928901017117334  0.6407306150260175  0.3635494092440174
  0.0345532325276578  0.1944684665598784  0.1997580574590799
  0.3553762500939047  0.2675138109102952  0.4268091057107641
  0.7828377170497577  0.1955904676270935  0.3129826661867238
  0.0830966481593543  0.5731144150702496  0.3824935296018063
  0.4689356102954254  0.9619891462716130  0.3374948266076049
  0.9822012731413541  0.6812093005037214  0.3150575468906450
  0.2147330316039117  0.2155581165501519  0.3231107474751536
  0.9706008813492164  0.9944715975054772  0.3879260708936352
  0.5673359852830325  0.3977937070747070  0.4871809842509524
  0.0412400654419833  0.9093881776118901  0.2117755992828018
  0.6413069661639188  0.8288227601817589  0.3389824164937634
  0.9127008709314038  0.6386842891096333  0.4330310708216036
  0.5455981025258443  0.6595892541484842  0.1718559140460327
  0.0075039789920817  0.6343238470319933  0.2079460883906991
  0.9660542534121159  0.6020067816145900  0.1601644951292341
  0.7486891966990407  0.5868065812408184  0.3289560424215359
  0.7447738417899747  0.5712330232679816  0.2757557845981919
  0.2488289414071989  0.0681874558113574  0.2342799427313584
  0.1355893940780137  0.1282036410047549  0.2296098937776624
  0.9049570667356237  0.1296328664851153  0.2205539796551147
  0.7836409536547936  0.0935684389017117  0.2216695000967251
  0.8071443261021694  0.5373065214138719  0.2024910441671598
  0.7141951135846970  0.4547369584702929  0.2078812537704940
  0.6734180132979551  0.7033030896540221  0.3699485484682573
  0.6448236069986087  0.6063807995081368  0.3997517196577497
  0.3943823831946810  0.7803118165791048  0.2374481413693600
  0.4689506530674371  0.7414949137399878  0.1958485118741021
  0.3816604812228705  0.4944831871397453  0.2079980548148330
  0.4064679750757365  0.4012570953114816  0.2408771943370343
  0.1068865489164674  0.3158563736587288  0.3479504920921998
 -0.0038677083077112  0.3700573357538099  0.3381304528072073
  0.9594046680884164  0.9031905304844442  0.4357466552995969
  0.9024683398267205  0.8777260865474806  0.4807363027731162
  0.5207191237684337  0.0939511862832957  0.3155319162937236
  0.4962179629431400  0.2112601403311565  0.3007733406897352
  0.0804720121602029  0.7796622996547761  0.2286181330364186
  0.0614547650539399  0.6974492755030486  0.2674314446800521
  0.0074688921833090  0.4538070037973709  0.2099031255764220
  0.9761329868740438  0.3899584659774367  0.2525079982927450
  0.8565200681008016  0.1985153924714140  0.3658198377878643
  0.9540078996360345  0.2547305702450866  0.3881663423210954
  0.4908424405526847  0.4226572295344757  0.3647791738027739
  0.3905130062952997  0.3789594361699472  0.3914515255199213
  0.8449183226973651  0.8001355866156526  0.2591824711532264
  0.8478650080338846  0.7255000672560941  0.2179427932105187
  0.6543497170707610  0.3701836357100781  0.3709226831345149
  0.6153264197258178  0.3413197325852029  0.3229590475473165
  0.2126529984327976  0.9903075073472847  0.3485877889091635
  0.1533076153206727  0.0001905169364782  0.3028457110081663
  0.3670996640694546  0.7315095605435696  0.3999991307468590
  0.4667118190262585  0.8038232003862855  0.3969324827179651
  0.5604804485535350  0.3581296858540358  0.1991924179440817
  0.6277619942150734  0.2537242958564072  0.1984252157944473
  0.2165068305640947  0.6277577141159452  0.2122984441971154
  0.3183904085164668  0.6638352984439087  0.1881464481769114
  0.8497540842564933  0.4514430180737789  0.3023004613467259
  0.8411950414225398  0.3260301848869591  0.3026689739596293
  0.6831936052637306  0.8389221734570544  0.2305457973946118
  0.5565044971281439  0.8466561783042426  0.2282465129282178
  0.8878299863067030  0.9152408419746710  0.3500285022191950
  0.9023258775967821  0.7991558026961997  0.3336694004034799
  0.4731642051354217  0.5356490178836750  0.4153193238813798
  0.4891481345489270  0.6458197620675864  0.4372005479957088
  0.6685919826855036  0.3374861473812072  0.4459255150680109
  0.7678690574886975  0.2835183652867183  0.4208144044194341
  0.4409185649378754  0.0589793699881796  0.2092968194098805
  0.3850502872821959  0.9504911268327833  0.2048608027410888
  0.3825954224690428  0.0165052863800201  0.3750893850140615
  0.3040287300181684  1.0054417783621001  0.4156146873678124
  0.5128511278799569  0.5462014711267148  0.2614098131446504
  0.5698640974844007  0.5360891156261225  0.3068279270748963
  0.3287466240898066  0.2796716683461911  0.3002397072292536
  0.4021503092613393  0.3686236154710793  0.3162399104462654
  0.3216895088991572  0.7440099491846324  0.3183379993932113
  0.2596747221630480  0.8440114783728991  0.3043777896048372
  0.6207003687869951  0.0123617926923116  0.2235432318407615
  0.5958627489482115  0.1161291471716268  0.2485566742013380
  0.3318477115609466  0.5740422142246944  0.3616628321231167
  0.2190178227579915  0.6214178288334188  0.3724822949138020
  0.0435737583137592  0.1893101029072130  0.1675873851578618
  0.0322509602287980  0.2723200188319175  0.2069536675940141
  0.3551357573545780  0.1942428296246526  0.4166553467145412
  0.4060159357808851  0.2707081479607991  0.4514954527545067
  0.7057277263241944  0.1807076080716089  0.3138708560820982
  0.8114129264025612  0.1531988791802771  0.2877280283429570
  0.0263948253995436  0.5931091283779433  0.4044915606729468
  0.0774841119842785  0.4962701695800970  0.3784345664818549
  0.4240720705420460  0.9099111784871261  0.3213738042346564
  0.5378981709087833  0.9246155957196566  0.3425312164607629
  0.0211389441396797  0.6411332140675758  0.3386021646352980
  0.9176769766154940  0.6388359902940606  0.3082913697844056
  0.2388375401425974  0.1698153568144047  0.3472517834424210
  0.1982807987952255  0.1683502982555511  0.2975996021155961
  0.0356913490722001  0.9915924918020578  0.3694963802687869
  0.9511813794000143  0.0696090781058618  0.3917750544067353
  0.5519609739924047  0.4686014861630771  0.4751333029460095
  0.5906102993647121  0.4092810442075225  0.5177142352203156
  0.9657895627866691  0.9199444534956051  0.2191212053003778
  0.0800813468876700  0.9663832578096518  0.2264893428602110
  0.6270396260099854  0.8185172543948828  0.3069784488323286
  0.7191535730064509  0.8481034840696385  0.3391941675707638
  0.8451152046971051  0.6390780716327242  0.4163664863388669
  0.9238659516478838  0.7122528309189919  0.4423929813434831
  0.5944942946559262  0.6188599174674213  0.1905620436038569
 
  0.00000000E+00  0.00000000E+00  0.00000000E+00
  0.00000000E+00  0.00000000E+00  0.00000000E+00
  0.00000000E+00  0.00000000E+00  0.00000000E+00
  0.00000000E+00  0.00000000E+00  0.00000000E+00
  0.00000000E+00  0.00000000E+00  0.00000000E+00
  0.00000000E+00  0.00000000E+00  0.00000000E+00
  0.00000000E+00  0.00000000E+00  0.00000000E+00
  0.00000000E+00  0.00000000E+00  0.00000000E+00
  0.00000000E+00  0.00000000E+00  0.00000000E+00
  0.00000000E+00  0.00000000E+00  0.00000000E+00
  0.00000000E+00  0.00000000E+00  0.00000000E+00
  0.00000000E+00  0.00000000E+00  0.00000000E+00
  0.00000000E+00  0.00000000E+00  0.00000000E+00
  0.00000000E+00  0.00000000E+00  0.00000000E+00
  0.00000000E+00  0.00000000E+00  0.00000000E+00
  0.00000000E+00  0.00000000E+00  0.00000000E+00
  0.00000000E+00  0.00000000E+00  0.00000000E+00
  0.00000000E+00  0.00000000E+00  0.00000000E+00
  0.00000000E+00  0.00000000E+00  0.00000000E+00
  0.00000000E+00  0.00000000E+00  0.00000000E+00
  0.00000000E+00  0.00000000E+00  0.00000000E+00
  0.00000000E+00  0.00000000E+00  0.00000000E+00
  0.00000000E+00  0.00000000E+00  0.00000000E+00
  0.00000000E+00  0.00000000E+00  0.00000000E+00
  0.00000000E+00  0.00000000E+00  0.00000000E+00
  0.00000000E+00  0.00000000E+00  0.00000000E+00
  0.00000000E+00  0.00000000E+00  0.00000000E+00
  0.00000000E+00  0.00000000E+00  0.00000000E+00
  0.00000000E+00  0.00000000E+00  0.00000000E+00
  0.00000000E+00  0.00000000E+00  0.00000000E+00
  0.00000000E+00  0.00000000E+00  0.00000000E+00
  0.00000000E+00  0.00000000E+00  0.00000000E+00
  0.00000000E+00  0.00000000E+00  0.00000000E+00
  0.00000000E+00  0.00000000E+00  0.00000000E+00
  0.00000000E+00  0.00000000E+00  0.00000000E+00
  0.00000000E+00  0.00000000E+00  0.00000000E+00
  0.00000000E+00  0.00000000E+00  0.00000000E+00
  0.00000000E+00  0.00000000E+00  0.00000000E+00
  0.00000000E+00  0.00000000E+00  0.00000000E+00
  0.00000000E+00  0.00000000E+00  0.00000000E+00
  0.00000000E+00  0.00000000E+00  0.00000000E+00
  0.00000000E+00  0.00000000E+00  0.00000000E+00
  0.00000000E+00  0.00000000E+00  0.00000000E+00
  0.00000000E+00  0.00000000E+00  0.00000000E+00
  0.00000000E+00  0.00000000E+00  0.00000000E+00
  0.00000000E+00  0.00000000E+00  0.00000000E+00
  0.00000000E+00  0.00000000E+00  0.00000000E+00
  0.00000000E+00  0.00000000E+00  0.00000000E+00
  0.00000000E+00  0.00000000E+00  0.00000000E+00
  0.00000000E+00  0.00000000E+00  0.00000000E+00
  0.00000000E+00  0.00000000E+00  0.00000000E+00
  0.00000000E+00  0.00000000E+00  0.00000000E+00
  0.00000000E+00  0.00000000E+00  0.00000000E+00
  0.00000000E+00  0.00000000E+00  0.00000000E+00
  0.00000000E+00  0.00000000E+00  0.00000000E+00
  0.00000000E+00  0.00000000E+00  0.00000000E+00
  0.00000000E+00  0.00000000E+00  0.00000000E+00
  0.00000000E+00  0.00000000E+00  0.00000000E+00
  0.00000000E+00  0.00000000E+00  0.00000000E+00
  0.00000000E+00  0.00000000E+00  0.00000000E+00
  0.00000000E+00  0.00000000E+00  0.00000000E+00
  0.00000000E+00  0.00000000E+00  0.00000000E+00
  0.00000000E+00  0.00000000E+00  0.00000000E+00
  0.00000000E+00  0.00000000E+00  0.00000000E+00
  0.00000000E+00  0.00000000E+00  0.00000000E+00
  0.00000000E+00  0.00000000E+00  0.00000000E+00
  0.00000000E+00  0.00000000E+00  0.00000000E+00
  0.00000000E+00  0.00000000E+00  0.00000000E+00
  0.00000000E+00  0.00000000E+00  0.00000000E+00
  0.00000000E+00  0.00000000E+00  0.00000000E+00
  0.00000000E+00  0.00000000E+00  0.00000000E+00
  0.00000000E+00  0.00000000E+00  0.00000000E+00
  0.00000000E+00  0.00000000E+00  0.00000000E+00
  0.00000000E+00  0.00000000E+00  0.00000000E+00
  0.00000000E+00  0.00000000E+00  0.00000000E+00
  0.00000000E+00  0.00000000E+00  0.00000000E+00
  0.00000000E+00  0.00000000E+00  0.00000000E+00
  0.00000000E+00  0.00000000E+00  0.00000000E+00
  0.00000000E+00  0.00000000E+00  0.00000000E+00
  0.00000000E+00  0.00000000E+00  0.00000000E+00
  0.00000000E+00  0.00000000E+00  0.00000000E+00
  0.00000000E+00  0.00000000E+00  0.00000000E+00
  0.00000000E+00  0.00000000E+00  0.00000000E+00
  0.00000000E+00  0.00000000E+00  0.00000000E+00
  0.00000000E+00  0.00000000E+00  0.00000000E+00
  0.00000000E+00  0.00000000E+00  0.00000000E+00
  0.00000000E+00  0.00000000E+00  0.00000000E+00
  0.00000000E+00  0.00000000E+00  0.00000000E+00
  0.00000000E+00  0.00000000E+00  0.00000000E+00
  0.00000000E+00  0.00000000E+00  0.00000000E+00
  0.00000000E+00  0.00000000E+00  0.00000000E+00
  0.00000000E+00  0.00000000E+00  0.00000000E+00
  0.00000000E+00  0.00000000E+00  0.00000000E+00
  0.00000000E+00  0.00000000E+00  0.00000000E+00
  0.00000000E+00  0.00000000E+00  0.00000000E+00
  0.00000000E+00  0.00000000E+00  0.00000000E+00
  0.00000000E+00  0.00000000E+00  0.00000000E+00
  0.00000000E+00  0.00000000E+00  0.00000000E+00
  0.00000000E+00  0.00000000E+00  0.00000000E+00
  0.00000000E+00  0.00000000E+00  0.00000000E+00
  0.00000000E+00  0.00000000E+00  0.00000000E+00
  0.00000000E+00  0.00000000E+00  0.00000000E+00
  0.00000000E+00  0.00000000E+00  0.00000000E+00
  0.00000000E+00  0.00000000E+00  0.00000000E+00
  0.00000000E+00  0.00000000E+00  0.00000000E+00
  0.00000000E+00  0.00000000E+00  0.00000000E+00
  0.00000000E+00  0.00000000E+00  0.00000000E+00
  0.00000000E+00  0.00000000E+00  0.00000000E+00
  0.00000000E+00  0.00000000E+00  0.00000000E+00
  0.00000000E+00  0.00000000E+00  0.00000000E+00
  0.00000000E+00  0.00000000E+00  0.00000000E+00
  0.00000000E+00  0.00000000E+00  0.00000000E+00
  0.00000000E+00  0.00000000E+00  0.00000000E+00
  0.00000000E+00  0.00000000E+00  0.00000000E+00
  0.00000000E+00  0.00000000E+00  0.00000000E+00
  0.00000000E+00  0.00000000E+00  0.00000000E+00
  0.00000000E+00  0.00000000E+00  0.00000000E+00
  0.00000000E+00  0.00000000E+00  0.00000000E+00
  0.00000000E+00  0.00000000E+00  0.00000000E+00
  0.00000000E+00  0.00000000E+00  0.00000000E+00
  0.00000000E+00  0.00000000E+00  0.00000000E+00
  0.00000000E+00  0.00000000E+00  0.00000000E+00
  0.00000000E+00  0.00000000E+00  0.00000000E+00
  0.00000000E+00  0.00000000E+00  0.00000000E+00
  0.00000000E+00  0.00000000E+00  0.00000000E+00
  0.00000000E+00  0.00000000E+00  0.00000000E+00
  0.00000000E+00  0.00000000E+00  0.00000000E+00
  0.00000000E+00  0.00000000E+00  0.00000000E+00
  0.00000000E+00  0.00000000E+00  0.00000000E+00
  0.00000000E+00  0.00000000E+00  0.00000000E+00
  0.00000000E+00  0.00000000E+00  0.00000000E+00
  0.00000000E+00  0.00000000E+00  0.00000000E+00
  0.00000000E+00  0.00000000E+00  0.00000000E+00
  0.00000000E+00  0.00000000E+00  0.00000000E+00
  0.00000000E+00  0.00000000E+00  0.00000000E+00
  0.00000000E+00  0.00000000E+00  0.00000000E+00
  0.00000000E+00  0.00000000E+00  0.00000000E+00
  0.00000000E+00  0.00000000E+00  0.00000000E+00
  0.00000000E+00  0.00000000E+00  0.00000000E+00
  0.00000000E+00  0.00000000E+00  0.00000000E+00
  0.00000000E+00  0.00000000E+00  0.00000000E+00
  0.00000000E+00  0.00000000E+00  0.00000000E+00
  0.00000000E+00  0.00000000E+00  0.00000000E+00
  0.00000000E+00  0.00000000E+00  0.00000000E+00
  0.00000000E+00  0.00000000E+00  0.00000000E+00
  0.00000000E+00  0.00000000E+00  0.00000000E+00
  0.00000000E+00  0.00000000E+00  0.00000000E+00
  0.00000000E+00  0.00000000E+00  0.00000000E+00
  0.00000000E+00  0.00000000E+00  0.00000000E+00
  0.00000000E+00  0.00000000E+00  0.00000000E+00
  0.00000000E+00  0.00000000E+00  0.00000000E+00
  0.00000000E+00  0.00000000E+00  0.00000000E+00
  0.00000000E+00  0.00000000E+00  0.00000000E+00
  0.00000000E+00  0.00000000E+00  0.00000000E+00
  0.00000000E+00  0.00000000E+00  0.00000000E+00
  0.00000000E+00  0.00000000E+00  0.00000000E+00
  0.00000000E+00  0.00000000E+00  0.00000000E+00
  0.00000000E+00  0.00000000E+00  0.00000000E+00
  0.00000000E+00  0.00000000E+00  0.00000000E+00
  0.00000000E+00  0.00000000E+00  0.00000000E+00
  0.00000000E+00  0.00000000E+00  0.00000000E+00
  0.00000000E+00  0.00000000E+00  0.00000000E+00
  0.00000000E+00  0.00000000E+00  0.00000000E+00
  0.00000000E+00  0.00000000E+00  0.00000000E+00
  0.00000000E+00  0.00000000E+00  0.00000000E+00
  0.00000000E+00  0.00000000E+00  0.00000000E+00
  0.00000000E+00  0.00000000E+00  0.00000000E+00
  0.00000000E+00  0.00000000E+00  0.00000000E+00
  0.00000000E+00  0.00000000E+00  0.00000000E+00
  0.00000000E+00  0.00000000E+00  0.00000000E+00
  0.00000000E+00  0.00000000E+00  0.00000000E+00
  0.00000000E+00  0.00000000E+00  0.00000000E+00
  0.00000000E+00  0.00000000E+00  0.00000000E+00
  0.00000000E+00  0.00000000E+00  0.00000000E+00
  0.00000000E+00  0.00000000E+00  0.00000000E+00
  0.00000000E+00  0.00000000E+00  0.00000000E+00
  0.00000000E+00  0.00000000E+00  0.00000000E+00
  0.00000000E+00  0.00000000E+00  0.00000000E+00
  0.00000000E+00  0.00000000E+00  0.00000000E+00
  0.00000000E+00  0.00000000E+00  0.00000000E+00
  0.00000000E+00  0.00000000E+00  0.00000000E+00
  0.00000000E+00  0.00000000E+00  0.00000000E+00
  0.00000000E+00  0.00000000E+00  0.00000000E+00
  0.00000000E+00  0.00000000E+00  0.00000000E+00
  0.00000000E+00  0.00000000E+00  0.00000000E+00
  0.00000000E+00  0.00000000E+00  0.00000000E+00
  0.00000000E+00  0.00000000E+00  0.00000000E+00
  0.00000000E+00  0.00000000E+00  0.00000000E+00
  0.00000000E+00  0.00000000E+00  0.00000000E+00
  0.00000000E+00  0.00000000E+00  0.00000000E+00
  0.00000000E+00  0.00000000E+00  0.00000000E+00
  0.00000000E+00  0.00000000E+00  0.00000000E+00
  0.00000000E+00  0.00000000E+00  0.00000000E+00
  0.00000000E+00  0.00000000E+00  0.00000000E+00
  0.00000000E+00  0.00000000E+00  0.00000000E+00
  0.00000000E+00  0.00000000E+00  0.00000000E+00
