 C  N Co  O  H                          
   1.00000000000000     
    12.4758271799999996    0.0000000000000000    0.0000000000000000
     0.0000000000000000   12.7377722799999997    0.0000000000000000
     0.0000000000000000    0.0000000000000000   19.8713392800000008
   C    N    Co   O    H 
    54     4     1    46    90
Direct
  0.1134108481133945  0.2499894063399392  0.1476486540816690
  0.2139516014917699  0.3050276318274390  0.1474212503896613
  0.2132456745038758  0.4162012274075556  0.1457044546920693
  0.1134715909591084  0.4712964577009074  0.1438787241027537
  0.3147655639761922  0.2505938216053980  0.1486897990423782
  0.4148572862314453  0.3069695852517104  0.1485131201766096
  0.4137455925082678  0.4191993679471262  0.1475761015352733
  0.3125325368826439  0.4719562064484418  0.1461869144588550
  0.5148500436215795  0.2512862496582822  0.1492663193508324
  0.6133449067357132  0.3102650529953914  0.1488337272233342
  0.6134228617711995  0.4247196529243127  0.1484927884232253
  0.5118623415531162  0.4801781056434914  0.1484115845255544
  0.7117894956059344  0.2512382751904587  0.1482968975611611
  0.8118643554042214  0.3069749809839252  0.1467526140216102
  0.8129530057046498  0.4193058856926482  0.1450485851487361
  0.7148047557336025  0.4801795582409526  0.1464306097665382
  0.9120801222132234  0.2505275183338435  0.1472020573811525
  0.0129517710914616  0.3050148758155844  0.1463691999954633
  0.0135774315782618  0.4162512692972490  0.1441813700883910
  0.9143012123556427  0.4719609481644291  0.1434490640826808
  0.1135345107429368  0.5824797483374294  0.1433283373818807
  0.2119275719756960  0.6387977561546810  0.1445764552232107
  0.2119200521431215  0.7500160961523645  0.1458542679510818
  0.1135334736782296  0.8063439256870405  0.1461535450050553
  0.3108060776305362  0.5831776694488553  0.1455750798017183
  0.4088373379592055  0.6385155268588144  0.1467657504827234
  0.4088555770639707  0.7501635362937550  0.1471567764806950
  0.3109156246469534  0.8055920067770704  0.1472737188774343
  0.8181086297930376  0.6386324649502567  0.1441406637510775
  0.8181543010330352  0.7502534379218463  0.1456777109741320
  0.9160084432011840  0.5831546260170203  0.1431434117660366
  0.0150146523293405  0.6387433771599499  0.1433750506374782
  0.0150636296186515  0.7501234848672548  0.1449132786139281
  0.9160685517637767  0.8057182122226141  0.1458011794382691
  0.1134385277879578  0.9175961393679924  0.1479167841012791
  0.2133086050397637  0.9727239164930725  0.1488802846006824
  0.1134066202710246  0.1390891966319305  0.1487872172262468
  0.3125223624871311  0.9169050943532765  0.1485891962257103
  0.4139101027578874  0.9697538513462729  0.1492930001143885
  0.4149317545371708  0.0822009433453699  0.1497391745872943
  0.3147773188461775  0.1386141213893380  0.1495235187231709
  0.5120960906538238  0.9088069745806331  0.1494026026395479
  0.6134499134144343  0.9643769148073045  0.1500279012349196
  0.6133665389018965  0.0789494223600522  0.1497066323824705
  0.5149233886361703  0.1380049277588210  0.1497365291107539
  0.7148907112324190  0.9087306454466852  0.1489486510235077
  0.8130315226351201  0.9697247835589363  0.1477669012155347
  0.8118920706399719  0.0821355176209454  0.1481626036235668
  0.7118338747743215  0.1379429282220042  0.1488227629734983
  0.9143784347571140  0.9169588596079145  0.1473394576920893
  0.0136074584901064  0.9727397895804475  0.1481887841851238
  0.9121211230776065  0.1385491811122204  0.1481766276969038
  0.2139331783624817  0.0840681450766521  0.1493427345767995
  0.0129126169197391  0.0840504402260295  0.1486276312773724
  0.5066034781608061  0.5883545460550245  0.1477837642932284
  0.5069612581320561  0.8002710414989063  0.1478488026555859
  0.7201785636887716  0.5886046421866066  0.1448615660100112
  0.7201292695154757  0.8002888071528380  0.1483400040096242
  0.6138661153599911  0.6944147563060939  0.1595757225797013
  0.4446998143658182  0.4492639073852051  0.4241195923226136
  0.6475796683816785  0.1724453491252756  0.3985278666626987
  0.8561054258548444  0.8204220758383379  0.5678937443405417
  0.1121750871326014  0.4438004276988951  0.3154781725465570
  0.0838300457384248  0.9619246969879605  0.5230121784487833
  0.3510723130506768  0.1652481801523469  0.6924429859610377
  0.7045280932099950  0.8205535598935358  0.6862723030546152
  0.1998698042702415  0.2311202720649446  0.4212391602679780
  0.9345650958702623  0.7004024844227822  0.4043392669203589
  0.6698696602499833  0.4193775550350402  0.3964891489166791
  0.6475594664687290  0.8248711189780826  0.3513530585191914
  0.2382461597494649  0.8315814899415156  0.3548913659284467
  0.3415589528719149  0.4382146708585178  0.5845804906115111
  0.9331198902259104  0.6677772144035722  0.6799149018816337
  0.0892351417168942  0.1675954806974933  0.5877132695469717
  0.2510936027499087  0.7603418955800914  0.4846387281337287
 -0.0009618913554247  0.2983697619617547  0.4830084390934112
  0.7553100359762445  0.0064675294729609  0.3186260841996973
  0.3574959781776165  0.7532059958371057  0.6705967364756477
  0.9642518291287938  0.5245670807067301  0.4937595276032191
  0.7566845747092809  0.4767580657371247  0.5284299345912107
  0.8366160111629131  0.1440387940365647  0.4855385268132033
  0.1097642515655871  0.6622577030519962  0.3078968072354713
  0.7820641516896432  0.5052047131852423  0.7306779908759962
  0.4865162635861366  0.0330033145807618  0.4496849905481560
  0.1586027220328481  0.6147767595238138  0.6766799830547680
  0.9135015835226389  0.9576919227418853  0.4281317267566820
  0.5705619976361935  0.6502788566384471  0.7038503644651816
  0.1663348399882765  0.0474181509759119  0.3369854268809533
  0.8986460604161128  0.8288184918404510  0.7702585795057086
  0.4385670957959293  0.9031588845414947  0.3280973321601202
  0.0363156669993153  0.9829029248194155  0.7018792803387611
  0.0644236027511067  0.2047019183324303  0.7258180534973808
  0.5369317724788968  0.5400062760133164  0.5859368470679712
  0.4525219463936830  0.7341462285730157  0.5398119810684181
  0.8215505621444370  0.1187519740621392  0.6322007906483941
  0.2629772425784043  0.3939355474224271  0.7154372402599792
  0.6367734666427181  0.8569782478443922  0.4963000350875991
  0.1706815297022614  0.5716394429741540  0.5414695247322816
  0.3123817783060738  0.9728961699446775  0.5345244612674864
  0.8890568857573611  0.3107400629735851  0.6932874212651015
  0.3870713421986207  0.2638802110879403  0.3439441117138695
  0.8816634205304978  0.4493593786045301  0.3075063887136574
  0.2665839607063600  0.9591143324710544  0.6762916524150501
  0.2920415169320495  0.2284934991399831  0.5474169827852546
  0.6142006173368156  0.6887692900768188  0.2472495514024619
  0.4242396552647758  0.4333209182150723  0.4704322525405609
  0.4188122457348319  0.3894317559082781  0.3971739536551004
  0.6802318870712099  0.1212779573385711  0.3675083098005876
  0.5917821820742949  0.1320419634470864  0.4224703666517673
  0.9142452511087447  0.8699370767259542  0.5590108727414754
  0.7982596710438550  0.8394121978518017  0.5367116775347256
  0.1463070815013534  0.4007221834927877  0.3499506966827712
  0.0342873564710983  0.4334148753248820  0.3209027287163407
  0.0390568663841740  0.9674528030517947  0.4823943344043830
  0.0723121145217333  0.0273951381483932  0.5485718198148738
  0.3546011393395469  0.1776505168610749  0.6438108062401320
  0.3215615674924951  0.2308117469007830  0.7101864670188401
  0.7496975378329772  0.8284479511978362  0.6462292192225028
  0.7541679685368100  0.8341621554616782  0.7235498889872470
  0.1815552437817948  0.1596829514860341  0.4060176373782524
  0.2367319002858762  0.2243331907562509  0.4659630342246410
  0.9300504708698704  0.7701557990708695  0.4246450117041972
  0.9973590135245402  0.7014914941874349  0.3745985435177180
  0.6641681301585647  0.3427401353879040  0.3981011202308526
  0.5951685447095157  0.4427790393527861  0.4043543865890911
  0.5708949653714676  0.8395108263874057  0.3430985162074257
  0.6624143560156496  0.7648840410329358  0.3210099199944473
  0.2432543988225398  0.8069621144704825  0.4027661178840897
  0.2006374514686420  0.7736098790577917  0.3320128921151501
  0.4126186416903860  0.4749277750757943  0.5873289290449646
  0.2888587649921365  0.4880455534646405  0.5656909765994487
  0.9142728902117919  0.7007333110901008  0.6369713094562821
  0.0097019427885136  0.6480299396146056  0.6772998121661920
  0.0772887173265617  0.1777114655161337  0.6368074210832083
  0.0442745221398204  0.2200445291900880  0.5648573665104988
  0.2279169315605338  0.8219907634469300  0.5103866449826358
  0.3280150621797968  0.7530461214708708  0.4981846824059626
  0.0645826540304926  0.2841382392702247  0.4569611953028641
  0.9881874189547355  0.3750865908395263  0.4828489933325524
  0.7178907802571644  0.9388140358472515  0.3290383311405001
  0.7584776937891270  0.0096442027633620  0.2698040666868631
  0.3320550486800290  0.8253312044319487  0.6798531497361566
  0.2934742573861347  0.7088781242108356  0.6758130374013451
  0.9522293370292620  0.5835894256660958  0.4622921916938082
  0.8936292349671462  0.5154560157977104  0.5164085478917058
  0.7261779453283327  0.4591456248037798  0.4841659527609449
  0.6950615671271868  0.4993050884786842  0.5553985067186695
  0.7706315863208655  0.1647986176492148  0.4618608419636852
  0.8874574297924137  0.2032214384785457  0.4806276997787248
  0.0697899981839080  0.6650608369060138  0.2659310542579164
  0.1216703550104170  0.5858043087233561  0.3155640561122200
  0.8285571125548995  0.5587571091193323  0.7104228000021442
  0.7100884049211826  0.5351028298764409  0.7296439154722858
  0.4277388309886194  0.0250795672012523  0.4829508236707313
  0.4639268540939609  0.9912569797171223  0.4106886402128708
  0.1625734434330857  0.5981271248698081  0.6276370691807367
  0.1733492579766204  0.5476239266250644  0.6988607187401477
  0.8822601479009567  0.0214624904602982  0.4493701742829046
  0.8933956125532371  0.9663909826585071  0.3809518885202241
  0.5005089188929585  0.6849742011561907  0.7069731273867806
  0.6217286943668855  0.7094520264166223  0.6966665713099488
  0.1839340337408442  0.9731842649442811  0.3463459331541813
  0.2246896470363728  0.0718748541357707  0.3085049352769824
  0.8983750301814980  0.8050972549230520  0.8167689790176007
  0.9154017307808903  0.7656022131906365  0.7425657606758633
  0.3671289662670478  0.8683574307677218  0.3342480221443355
  0.4374273162996234  0.9331609530047454  0.2831401176335345
  0.9968497046144176  0.9358023113879789  0.7323198942258211
  0.0407627589874740  0.0511523825110644  0.7246605377071629
  0.9991117922864983  0.2508824841203538  0.7227218668117050
  0.1236193759105322  0.2508875127324827  0.7377977336867527
  0.5164148642382874  0.6024940884620350  0.5593496048269004
  0.5530853466161959  0.5723392206701052  0.6306889339783598
  0.4282239993247807  0.7504326706441119  0.5861725080899073
  0.5134270457917641  0.7810418177175287  0.5292879052489999
  0.8249097560956875  0.1240922729131417  0.5828763555402908
  0.8785553833607513  0.0700674453117658  0.6448470275074666
  0.3143938519234655  0.4208866858232723  0.7480462995251214
  0.2953781924838471  0.4099445560306111  0.6708215856767241
  0.6482493021986653  0.8332682637162409  0.4496662335617221
  0.6026612825515102  0.9259716551277157  0.4907072385963317
  0.1906671068603064  0.6372870517978054  0.5179376740424879
  0.0969721135769646  0.5528754010474469  0.5267065689148464
  0.2385619468652961  0.9889889229206077  0.5206160130491612
  0.3061191138499671  0.9711645345396036  0.5841494120583118
  0.8460325824071138  0.2545355321870597  0.6725928877021492
  0.8412664694786967  0.3678227012612563  0.7076816309624953
  0.3215234331330133  0.2483020060698168  0.3704381517433314
  0.4425763272310690  0.2192581325614594  0.3634401224801632
  0.8448183434257481  0.3945324572483286  0.2824999538118458
  0.8308632593143946  0.4667829225417893  0.3434252498191683
  0.2931748133817755  0.0268734855758212  0.6937200921657888
  0.1884047480665299  0.9596992676357043  0.6845058187004293
  0.2219068973873744  0.2107946853022331  0.5686216440010715
  0.3077507549479992  0.3021895821292646  0.5593222571727668
 
  0.00000000E+00  0.00000000E+00  0.00000000E+00
  0.00000000E+00  0.00000000E+00  0.00000000E+00
  0.00000000E+00  0.00000000E+00  0.00000000E+00
  0.00000000E+00  0.00000000E+00  0.00000000E+00
  0.00000000E+00  0.00000000E+00  0.00000000E+00
  0.00000000E+00  0.00000000E+00  0.00000000E+00
  0.00000000E+00  0.00000000E+00  0.00000000E+00
  0.00000000E+00  0.00000000E+00  0.00000000E+00
  0.00000000E+00  0.00000000E+00  0.00000000E+00
  0.00000000E+00  0.00000000E+00  0.00000000E+00
  0.00000000E+00  0.00000000E+00  0.00000000E+00
  0.00000000E+00  0.00000000E+00  0.00000000E+00
  0.00000000E+00  0.00000000E+00  0.00000000E+00
  0.00000000E+00  0.00000000E+00  0.00000000E+00
  0.00000000E+00  0.00000000E+00  0.00000000E+00
  0.00000000E+00  0.00000000E+00  0.00000000E+00
  0.00000000E+00  0.00000000E+00  0.00000000E+00
  0.00000000E+00  0.00000000E+00  0.00000000E+00
  0.00000000E+00  0.00000000E+00  0.00000000E+00
  0.00000000E+00  0.00000000E+00  0.00000000E+00
  0.00000000E+00  0.00000000E+00  0.00000000E+00
  0.00000000E+00  0.00000000E+00  0.00000000E+00
  0.00000000E+00  0.00000000E+00  0.00000000E+00
  0.00000000E+00  0.00000000E+00  0.00000000E+00
  0.00000000E+00  0.00000000E+00  0.00000000E+00
  0.00000000E+00  0.00000000E+00  0.00000000E+00
  0.00000000E+00  0.00000000E+00  0.00000000E+00
  0.00000000E+00  0.00000000E+00  0.00000000E+00
  0.00000000E+00  0.00000000E+00  0.00000000E+00
  0.00000000E+00  0.00000000E+00  0.00000000E+00
  0.00000000E+00  0.00000000E+00  0.00000000E+00
  0.00000000E+00  0.00000000E+00  0.00000000E+00
  0.00000000E+00  0.00000000E+00  0.00000000E+00
  0.00000000E+00  0.00000000E+00  0.00000000E+00
  0.00000000E+00  0.00000000E+00  0.00000000E+00
  0.00000000E+00  0.00000000E+00  0.00000000E+00
  0.00000000E+00  0.00000000E+00  0.00000000E+00
  0.00000000E+00  0.00000000E+00  0.00000000E+00
  0.00000000E+00  0.00000000E+00  0.00000000E+00
  0.00000000E+00  0.00000000E+00  0.00000000E+00
  0.00000000E+00  0.00000000E+00  0.00000000E+00
  0.00000000E+00  0.00000000E+00  0.00000000E+00
  0.00000000E+00  0.00000000E+00  0.00000000E+00
  0.00000000E+00  0.00000000E+00  0.00000000E+00
  0.00000000E+00  0.00000000E+00  0.00000000E+00
  0.00000000E+00  0.00000000E+00  0.00000000E+00
  0.00000000E+00  0.00000000E+00  0.00000000E+00
  0.00000000E+00  0.00000000E+00  0.00000000E+00
  0.00000000E+00  0.00000000E+00  0.00000000E+00
  0.00000000E+00  0.00000000E+00  0.00000000E+00
  0.00000000E+00  0.00000000E+00  0.00000000E+00
  0.00000000E+00  0.00000000E+00  0.00000000E+00
  0.00000000E+00  0.00000000E+00  0.00000000E+00
  0.00000000E+00  0.00000000E+00  0.00000000E+00
  0.00000000E+00  0.00000000E+00  0.00000000E+00
  0.00000000E+00  0.00000000E+00  0.00000000E+00
  0.00000000E+00  0.00000000E+00  0.00000000E+00
  0.00000000E+00  0.00000000E+00  0.00000000E+00
  0.00000000E+00  0.00000000E+00  0.00000000E+00
  0.00000000E+00  0.00000000E+00  0.00000000E+00
  0.00000000E+00  0.00000000E+00  0.00000000E+00
  0.00000000E+00  0.00000000E+00  0.00000000E+00
  0.00000000E+00  0.00000000E+00  0.00000000E+00
  0.00000000E+00  0.00000000E+00  0.00000000E+00
  0.00000000E+00  0.00000000E+00  0.00000000E+00
  0.00000000E+00  0.00000000E+00  0.00000000E+00
  0.00000000E+00  0.00000000E+00  0.00000000E+00
  0.00000000E+00  0.00000000E+00  0.00000000E+00
  0.00000000E+00  0.00000000E+00  0.00000000E+00
  0.00000000E+00  0.00000000E+00  0.00000000E+00
  0.00000000E+00  0.00000000E+00  0.00000000E+00
  0.00000000E+00  0.00000000E+00  0.00000000E+00
  0.00000000E+00  0.00000000E+00  0.00000000E+00
  0.00000000E+00  0.00000000E+00  0.00000000E+00
  0.00000000E+00  0.00000000E+00  0.00000000E+00
  0.00000000E+00  0.00000000E+00  0.00000000E+00
  0.00000000E+00  0.00000000E+00  0.00000000E+00
  0.00000000E+00  0.00000000E+00  0.00000000E+00
  0.00000000E+00  0.00000000E+00  0.00000000E+00
  0.00000000E+00  0.00000000E+00  0.00000000E+00
  0.00000000E+00  0.00000000E+00  0.00000000E+00
  0.00000000E+00  0.00000000E+00  0.00000000E+00
  0.00000000E+00  0.00000000E+00  0.00000000E+00
  0.00000000E+00  0.00000000E+00  0.00000000E+00
  0.00000000E+00  0.00000000E+00  0.00000000E+00
  0.00000000E+00  0.00000000E+00  0.00000000E+00
  0.00000000E+00  0.00000000E+00  0.00000000E+00
  0.00000000E+00  0.00000000E+00  0.00000000E+00
  0.00000000E+00  0.00000000E+00  0.00000000E+00
  0.00000000E+00  0.00000000E+00  0.00000000E+00
  0.00000000E+00  0.00000000E+00  0.00000000E+00
  0.00000000E+00  0.00000000E+00  0.00000000E+00
  0.00000000E+00  0.00000000E+00  0.00000000E+00
  0.00000000E+00  0.00000000E+00  0.00000000E+00
  0.00000000E+00  0.00000000E+00  0.00000000E+00
  0.00000000E+00  0.00000000E+00  0.00000000E+00
  0.00000000E+00  0.00000000E+00  0.00000000E+00
  0.00000000E+00  0.00000000E+00  0.00000000E+00
  0.00000000E+00  0.00000000E+00  0.00000000E+00
  0.00000000E+00  0.00000000E+00  0.00000000E+00
  0.00000000E+00  0.00000000E+00  0.00000000E+00
  0.00000000E+00  0.00000000E+00  0.00000000E+00
  0.00000000E+00  0.00000000E+00  0.00000000E+00
  0.00000000E+00  0.00000000E+00  0.00000000E+00
  0.00000000E+00  0.00000000E+00  0.00000000E+00
  0.00000000E+00  0.00000000E+00  0.00000000E+00
  0.00000000E+00  0.00000000E+00  0.00000000E+00
  0.00000000E+00  0.00000000E+00  0.00000000E+00
  0.00000000E+00  0.00000000E+00  0.00000000E+00
  0.00000000E+00  0.00000000E+00  0.00000000E+00
  0.00000000E+00  0.00000000E+00  0.00000000E+00
  0.00000000E+00  0.00000000E+00  0.00000000E+00
  0.00000000E+00  0.00000000E+00  0.00000000E+00
  0.00000000E+00  0.00000000E+00  0.00000000E+00
  0.00000000E+00  0.00000000E+00  0.00000000E+00
  0.00000000E+00  0.00000000E+00  0.00000000E+00
  0.00000000E+00  0.00000000E+00  0.00000000E+00
  0.00000000E+00  0.00000000E+00  0.00000000E+00
  0.00000000E+00  0.00000000E+00  0.00000000E+00
  0.00000000E+00  0.00000000E+00  0.00000000E+00
  0.00000000E+00  0.00000000E+00  0.00000000E+00
  0.00000000E+00  0.00000000E+00  0.00000000E+00
  0.00000000E+00  0.00000000E+00  0.00000000E+00
  0.00000000E+00  0.00000000E+00  0.00000000E+00
  0.00000000E+00  0.00000000E+00  0.00000000E+00
  0.00000000E+00  0.00000000E+00  0.00000000E+00
  0.00000000E+00  0.00000000E+00  0.00000000E+00
  0.00000000E+00  0.00000000E+00  0.00000000E+00
  0.00000000E+00  0.00000000E+00  0.00000000E+00
  0.00000000E+00  0.00000000E+00  0.00000000E+00
  0.00000000E+00  0.00000000E+00  0.00000000E+00
  0.00000000E+00  0.00000000E+00  0.00000000E+00
  0.00000000E+00  0.00000000E+00  0.00000000E+00
  0.00000000E+00  0.00000000E+00  0.00000000E+00
  0.00000000E+00  0.00000000E+00  0.00000000E+00
  0.00000000E+00  0.00000000E+00  0.00000000E+00
  0.00000000E+00  0.00000000E+00  0.00000000E+00
  0.00000000E+00  0.00000000E+00  0.00000000E+00
  0.00000000E+00  0.00000000E+00  0.00000000E+00
  0.00000000E+00  0.00000000E+00  0.00000000E+00
  0.00000000E+00  0.00000000E+00  0.00000000E+00
  0.00000000E+00  0.00000000E+00  0.00000000E+00
  0.00000000E+00  0.00000000E+00  0.00000000E+00
  0.00000000E+00  0.00000000E+00  0.00000000E+00
  0.00000000E+00  0.00000000E+00  0.00000000E+00
  0.00000000E+00  0.00000000E+00  0.00000000E+00
  0.00000000E+00  0.00000000E+00  0.00000000E+00
  0.00000000E+00  0.00000000E+00  0.00000000E+00
  0.00000000E+00  0.00000000E+00  0.00000000E+00
  0.00000000E+00  0.00000000E+00  0.00000000E+00
  0.00000000E+00  0.00000000E+00  0.00000000E+00
  0.00000000E+00  0.00000000E+00  0.00000000E+00
  0.00000000E+00  0.00000000E+00  0.00000000E+00
  0.00000000E+00  0.00000000E+00  0.00000000E+00
  0.00000000E+00  0.00000000E+00  0.00000000E+00
  0.00000000E+00  0.00000000E+00  0.00000000E+00
  0.00000000E+00  0.00000000E+00  0.00000000E+00
  0.00000000E+00  0.00000000E+00  0.00000000E+00
  0.00000000E+00  0.00000000E+00  0.00000000E+00
  0.00000000E+00  0.00000000E+00  0.00000000E+00
  0.00000000E+00  0.00000000E+00  0.00000000E+00
  0.00000000E+00  0.00000000E+00  0.00000000E+00
  0.00000000E+00  0.00000000E+00  0.00000000E+00
  0.00000000E+00  0.00000000E+00  0.00000000E+00
  0.00000000E+00  0.00000000E+00  0.00000000E+00
  0.00000000E+00  0.00000000E+00  0.00000000E+00
  0.00000000E+00  0.00000000E+00  0.00000000E+00
  0.00000000E+00  0.00000000E+00  0.00000000E+00
  0.00000000E+00  0.00000000E+00  0.00000000E+00
  0.00000000E+00  0.00000000E+00  0.00000000E+00
  0.00000000E+00  0.00000000E+00  0.00000000E+00
  0.00000000E+00  0.00000000E+00  0.00000000E+00
  0.00000000E+00  0.00000000E+00  0.00000000E+00
  0.00000000E+00  0.00000000E+00  0.00000000E+00
  0.00000000E+00  0.00000000E+00  0.00000000E+00
  0.00000000E+00  0.00000000E+00  0.00000000E+00
  0.00000000E+00  0.00000000E+00  0.00000000E+00
  0.00000000E+00  0.00000000E+00  0.00000000E+00
  0.00000000E+00  0.00000000E+00  0.00000000E+00
  0.00000000E+00  0.00000000E+00  0.00000000E+00
  0.00000000E+00  0.00000000E+00  0.00000000E+00
  0.00000000E+00  0.00000000E+00  0.00000000E+00
  0.00000000E+00  0.00000000E+00  0.00000000E+00
  0.00000000E+00  0.00000000E+00  0.00000000E+00
  0.00000000E+00  0.00000000E+00  0.00000000E+00
  0.00000000E+00  0.00000000E+00  0.00000000E+00
  0.00000000E+00  0.00000000E+00  0.00000000E+00
  0.00000000E+00  0.00000000E+00  0.00000000E+00
  0.00000000E+00  0.00000000E+00  0.00000000E+00
  0.00000000E+00  0.00000000E+00  0.00000000E+00
  0.00000000E+00  0.00000000E+00  0.00000000E+00
  0.00000000E+00  0.00000000E+00  0.00000000E+00
  0.00000000E+00  0.00000000E+00  0.00000000E+00
  0.00000000E+00  0.00000000E+00  0.00000000E+00
  0.00000000E+00  0.00000000E+00  0.00000000E+00
