 C  N Cu  O  H                          
   1.00000000000000     
    12.4568083000000005    0.0000000000000000    0.0000000000000000
     0.0000000000000000   12.7194003999999996    0.0000000000000000
     0.0000000000000000    0.0000000000000000   30.0000000000000000
   C    N    Cu   O    H 
    54     4     1    47    91
Direct
  0.1949678324260009  0.3733516645915862  0.0967822324522723
  0.2953244967068880  0.4283995221643940  0.0980228867905062
  0.2946795298192022  0.5396244551302557  0.0981815472441814
  0.1949161050708941  0.5948778620458532  0.0970172438600542
  0.3958844449129112  0.3738177738412310  0.0993877133413802
  0.4958955076256454  0.4298147416636610  0.1011365544453932
  0.4946717726495592  0.5418012775614904  0.1016064373604246
  0.3939456449182837  0.5952650972145572  0.0998934285987325
  0.5962359453245228  0.3744632385615531  0.1021632812343870
  0.6948444499577761  0.4337804339430221  0.1026223746944552
  0.6949023427626784  0.5475780470677564  0.1035358182000092
  0.5925129544014476  0.6026159473554679  0.1035643161006666
  0.7934361454039506  0.3745394369480924  0.1013439362980540
  0.8936739106970693  0.4300015693705701  0.0995002380760890
  0.8950795702380145  0.5419601475740904  0.0998831310620467
  0.7972848788114298  0.6027259750573625  0.1027503974658073
  0.9938158038701138  0.3739168978034310  0.0975821324865173
  0.0946130124269503  0.4284854047687202  0.0967884559544850
  0.0951570658681580  0.5397496498044778  0.0969502728116448
  0.9958317400396556  0.5953792355701830  0.0979116665263009
  0.1948874484573386  0.7062131416032643  0.0965566227822931
  0.2933337363703910  0.7622718857435884  0.0976283884767376
  0.2934413880746569  0.8736477042216307  0.0972912904033723
  0.1949153306431191  0.9297449417550223  0.0962138551348562
  0.3922311149436696  0.7067317831854066  0.0997987840495632
  0.4904767118409530  0.7614123455024128  0.1022271380478910
  0.4904898625068598  0.8745755045718873  0.1022600877664193
  0.3923599653697488  0.9292420484461378  0.0993020281508199
  0.8995506086499798  0.7614294852669659  0.1006106929505713
  0.8995685688134275  0.8743667901865991  0.1011576447867508
  0.9976323899264166  0.7067697237944596  0.0976290482187204
  0.0964740525394764  0.7623007611678831  0.0961931491447634
  0.0964950040330298  0.8735476473919911  0.0963003749216786
  0.9976516511022070  0.9291093808031686  0.0982900967824428
  0.1949733879242369  0.0410973292207508  0.0966541150788896
  0.2947480198401909  0.0963166543670762  0.0974982304901571
  0.1949601708579125  0.2625329113297721  0.0966373336638595
  0.3939933903330738  0.0406824308602956  0.0992058144107538
  0.4946770623035445  0.0941140176672709  0.1011720327514414
  0.4958819606363780  0.2060907600035441  0.1008288984664842
  0.3958535455674864  0.2620411500404881  0.0991150695560365
  0.5925343033018418  0.0333100985524198  0.1037124884456565
  0.6949597773066415  0.0883766521479842  0.1039476438049527
  0.6948538604267668  0.2022728181306159  0.1027077412113824
  0.5962010279761580  0.2615543785549817  0.1021152081188230
  0.7973424607011967  0.0332156765334446  0.1035289829081198
  0.8951521932029980  0.0940257533988197  0.1005685449763544
  0.8938292338405139  0.2059856871063147  0.0998522286266693
  0.7935198724103871  0.2615566963500015  0.1014414942979198
  0.9959547287950459  0.0406171082845410  0.0986121076630926
  0.0952013983030462  0.0962200339478592  0.0971356551739808
  0.9938790363727981  0.2619649157671400  0.0978184187817256
  0.2953452356690927  0.2074957690814854  0.0975276341086786
  0.0946243666107923  0.2074910024401942  0.0969345473598307
  0.5863097048494812  0.7095941519755800  0.1042080363180609
  0.5864166715103776  0.9263370082314828  0.1048515032936480
  0.8037219303605653  0.7096543831954824  0.1038185409812176
  0.8036342293829354  0.9261695634964824  0.1048828945008876
  0.6951848212578041  0.8175656547836686  0.1163187160767798
  0.6250804640343608  0.0364440365232939  0.2515305591951632
  0.7988039378668118  0.6677448234473533  0.4210538512186560
  0.9493699538016775  0.8769471855510326  0.2648546134707582
  0.0290626986603863  0.7283151071584620  0.2043060222793855
  0.9588750246379939  0.0879378315497980  0.2393303160313764
  0.9962617300569597  0.6694985054521472  0.3681796145269974
  0.4820513258881243  0.1116614730460021  0.3258620280554245
  0.4141573624093606  0.9932090230521113  0.2167255097421837
  0.2267909661578242  0.6095355101139880  0.3751826177025140
  0.1308548064755714  0.0831806892283698  0.4019527452125154
  0.4799222279619743  0.9346085608625428  0.3852162181999774
  0.0422283350142375  0.3414679596682607  0.2058325506968804
  0.3466920856908648  0.8099586872487963  0.2676538416793924
  0.4403757238855520  0.0693684327874833  0.4635856579427539
  0.5231361757150721  0.3236845855621582  0.3237244602955750
  0.7473569308716658  0.2894101154132601  0.2944757339449587
  0.7240886388942662  0.4984400365525829  0.3703605475863329
  0.8577107758447617  0.5884946641779104  0.3044728573668221
  0.2834647003011582  0.8217000587593301  0.3562727871779016
  0.7521350744559145  0.7886362158804737  0.2819764231005033
  0.1942504408768040  0.0768417597940985  0.2374582403162248
  0.2623018613026228  0.2854741597469117  0.2027931247088201
  0.9379591694432805  0.3525723618197669  0.3439280255242579
  0.0355165888374234  0.5321660154198498  0.2501683374887028
  0.6150446545365965  0.1949403271228524  0.4223538592313944
  0.8693203113756761  0.1135765532642394  0.4638188299838503
  0.4654077109759120  0.6073059682000190  0.2570947103889081
  0.9740448233837493  0.4151540716185371  0.4815832777036277
  0.2128693728609624  0.4861455787704640  0.3026125277318579
  0.0451235521597881  0.8763330246950649  0.3500511717723699
  0.8092158826989261  0.0862892726514807  0.3126418243353830
  0.1918545502779032  0.8638067115888189  0.2059576440981679
  0.8650368451195627  0.9763639646641571  0.3895211860632076
  0.3118568080673964  0.3815544146980311  0.4809081696248165
  0.0319406744258922  0.1954514512075882  0.5127639386577467
  0.6864884809426161  0.8363804754019009  0.3709143741415080
  0.8262560607283309  0.3107499374575926  0.4248759079033237
  0.3913507928793324  0.4071946903111014  0.2590768542403145
  0.4290101259389532  0.4646778567956896  0.3955510471650283
  0.2426042235575922  0.1204744450109244  0.3257297671624542
  0.1488211455762981  0.4471075462829381  0.4274137536871021
  0.2433723048558648  0.1671330947606133  0.4740475250264709
  0.7591772843753128  0.1926370784067508  0.2132529943347586
  0.5235173168343796  0.6468866241471619  0.3484500906817078
  0.1477946083415718  0.3208945925574833  0.3527806084405374
  0.6898046146197220  0.8022229907336331  0.1876961440817231
  0.5802449476377259  0.8197101111035574  0.2020567376884900
  0.6660284886818442  0.0907597048057544  0.2350466542859541
  0.6783737343262175  1.0092600380837573  0.2726265603770071
  0.8714386509936188  0.6728499913101320  0.4084008726513628
  0.7592684962903369  0.7269451496958745  0.4078672882257370
  0.9503993422967908  0.9483043366554084  0.2518667124636456
  0.9905348547966598  0.8811819151920606  0.2931522186723445
  0.9894428184041242  0.7726472032217027  0.2258276002012722
  0.0379263791389755  0.6595846843679170  0.2193342302924672
  0.9114918544296593  0.1347492006929306  0.2223830997515031
  0.0334016714600122  0.1112497161002193  0.2352273421790154
  0.9551291873243275  0.6349366364940794  0.3437193663657772
  0.0671061380008580  0.6357594249206625  0.3701776200403107
  0.5252396763844969  0.0892994080491459  0.3001085655111578
  0.4930135726502086  0.1894249442318414  0.3274633276758298
  0.4794718830934402  1.0256276324385485  0.2285028330029029
  0.3547078477543285  0.0401268733594053  0.2245863103728845
  0.2306174973028815  0.5742002896879811  0.3454013568700687
  0.2530253308869996  0.6825992603772433  0.3711163818338779
  0.1690060019444610  0.1153774703924725  0.4277021161070950
  0.1110704097978674  0.0123736957854420  0.4109840462089452
  0.4778773380512527  0.9964688520411571  0.3653971807978105
  0.4154104869855602  0.8932493896004452  0.3776249334676406
  0.0158455265106195  0.3556466701485531  0.1759088359159498
  0.0334265974047689  0.4094807890633065  0.2219349737942831
  0.2829344234030385  0.8171957097997594  0.2480662606904136
  0.3911892466890334  0.8679554317667637  0.2561855853148702
  0.4948732350279684  0.1216741495679134  0.4555288011728699
  0.4483952861146325  0.0150237358064597  0.4404622820013478
  0.5017930134010554  0.3670120908982766  0.3493878350569312
  0.4783364551062084  0.3511240988917339  0.2986762095947403
  0.6763097416788543  0.3125701792069365  0.3050975617154242
  0.7597170807886154  0.2179622602681100  0.3070149219690971
  0.7490902935302938  0.4326164902903563  0.3834126602457418
  0.7468243224513151  0.5535567342556941  0.3918876708184221
  0.8098344233666180  0.5453395807465166  0.3236527409950525
  0.8142740939704283  0.6490249950164126  0.2944206132540733
  0.2133327379272998  0.8569268224383734  0.3559072479859106
  0.3058737329902545  0.8180837749214990  0.3243402740388251
  0.8205019104441714  0.8268552259485010  0.2762701589309456
  0.7191844333224393  0.7840258473214777  0.2521165025954692
  0.2047408876872249  0.0805462130659476  0.2702719992966163
  0.1847377524567484  0.0021993918790284  0.2292947078821844
  0.1876372540956034  0.3123299048316360  0.2033102340936995
  0.2532354151458658  0.2127752226894170  0.2129420376135255
  0.8825002606914186  0.3409533641579277  0.3212107245431122
  0.9023904544757295  0.3329376077336250  0.3721228855483081
  0.0988806080276707  0.5204970509418080  0.2698193207100595
  0.9724851537087233  0.5414732319937224  0.2698243521167965
  0.6692113535670275  0.2505453056846582  0.4242013562793144
  0.6085219698713132  0.1785211183655800  0.3907621318747698
  0.9328589001611556  0.1352841049849137  0.4824280402990906
  0.8103482667764715  0.1025360287216371  0.4845755344294541
  0.4934621425460632  0.6155488551634041  0.2876861632315688
  0.4245726664151909  0.6724779954581050  0.2527607904807157
  0.9515292705528187  0.4788863813734305  0.4968649748329032
  0.0333929171126385  0.4363704545805454  0.4611407014424097
  0.2789380234079238  0.4632937308236683  0.2865753577621025
  0.1904290152250487  0.4218091661252402  0.3193915929043477
  0.9879912710758962  0.9157317690614806  0.3657221288442861
  0.0275835935472805  0.8013926597501528  0.3566372581283699
  0.8329583189550503  0.0548328714869844  0.3412253867561836
  0.8730518464834151  0.0874519734220783  0.2933232537643192
  0.1332733638136165  0.8092398677576125  0.2027460110747418
  0.2334503854484040  0.8623220894422199  0.1785162044406866
  0.8664598212318861  0.0176378471852964  0.4174207133137138
  0.8016407973121011  0.9297781633772139  0.3901443672700639
  0.3053735380856114  0.4064926701282474  0.5114394444970307
  0.2499290997306874  0.4123995445476447  0.4642628831858017
  0.0228662250319622  0.2710101183584788  0.5074605188926041
  0.1059604168410068  0.1787892760276454  0.5034895269351034
  0.6981808095459318  0.8286861549901279  0.3384291296710201
  0.6146560441050932  0.8682560453035509  0.3752641997151083
  0.8668551725182345  0.3556594072226062  0.4458618382958098
  0.8424124742919878  0.2384290921550650  0.4352804836916899
  0.4185174164555193  0.4772727094779566  0.2492622053043213
  0.3544625410565945  0.3685731552477031  0.2347274803892627
  0.3689807721504287  0.5128856145083379  0.3901319120887662
  0.4169216958396672  0.4381757704524958  0.4257382916474127
  0.2094240155249198  0.0910760170008094  0.3532932127530811
  0.3208141521898204  0.1120859598655043  0.3282618744968075
  0.1505446854893015  0.3942323124780296  0.4028141410065098
  0.1713021870012368  0.5136671142869953  0.4130509426291990
  0.3113586517802210  0.1257498667732165  0.4725227956069915
  0.2683516638049515  0.2407528259097368  0.4755801840806698
  0.7529471818456017  0.2437127878501130  0.2384164061034648
  0.7417620921400642  0.2304972722337074  0.1860183683849974
  0.5328025006225906  0.5830439395891776  0.3662562389848903
  0.5873319615600608  0.6888385709163457  0.3546571729076317
  0.0692657357949707  0.3165579241723945  0.3458685880079285
  0.1816339602048880  0.2536618381422112  0.3444690643467234
  0.5840043782357234  0.8930743320746589  0.2123955249471551
 
  0.00000000E+00  0.00000000E+00  0.00000000E+00
  0.00000000E+00  0.00000000E+00  0.00000000E+00
  0.00000000E+00  0.00000000E+00  0.00000000E+00
  0.00000000E+00  0.00000000E+00  0.00000000E+00
  0.00000000E+00  0.00000000E+00  0.00000000E+00
  0.00000000E+00  0.00000000E+00  0.00000000E+00
  0.00000000E+00  0.00000000E+00  0.00000000E+00
  0.00000000E+00  0.00000000E+00  0.00000000E+00
  0.00000000E+00  0.00000000E+00  0.00000000E+00
  0.00000000E+00  0.00000000E+00  0.00000000E+00
  0.00000000E+00  0.00000000E+00  0.00000000E+00
  0.00000000E+00  0.00000000E+00  0.00000000E+00
  0.00000000E+00  0.00000000E+00  0.00000000E+00
  0.00000000E+00  0.00000000E+00  0.00000000E+00
  0.00000000E+00  0.00000000E+00  0.00000000E+00
  0.00000000E+00  0.00000000E+00  0.00000000E+00
  0.00000000E+00  0.00000000E+00  0.00000000E+00
  0.00000000E+00  0.00000000E+00  0.00000000E+00
  0.00000000E+00  0.00000000E+00  0.00000000E+00
  0.00000000E+00  0.00000000E+00  0.00000000E+00
  0.00000000E+00  0.00000000E+00  0.00000000E+00
  0.00000000E+00  0.00000000E+00  0.00000000E+00
  0.00000000E+00  0.00000000E+00  0.00000000E+00
  0.00000000E+00  0.00000000E+00  0.00000000E+00
  0.00000000E+00  0.00000000E+00  0.00000000E+00
  0.00000000E+00  0.00000000E+00  0.00000000E+00
  0.00000000E+00  0.00000000E+00  0.00000000E+00
  0.00000000E+00  0.00000000E+00  0.00000000E+00
  0.00000000E+00  0.00000000E+00  0.00000000E+00
  0.00000000E+00  0.00000000E+00  0.00000000E+00
  0.00000000E+00  0.00000000E+00  0.00000000E+00
  0.00000000E+00  0.00000000E+00  0.00000000E+00
  0.00000000E+00  0.00000000E+00  0.00000000E+00
  0.00000000E+00  0.00000000E+00  0.00000000E+00
  0.00000000E+00  0.00000000E+00  0.00000000E+00
  0.00000000E+00  0.00000000E+00  0.00000000E+00
  0.00000000E+00  0.00000000E+00  0.00000000E+00
  0.00000000E+00  0.00000000E+00  0.00000000E+00
  0.00000000E+00  0.00000000E+00  0.00000000E+00
  0.00000000E+00  0.00000000E+00  0.00000000E+00
  0.00000000E+00  0.00000000E+00  0.00000000E+00
  0.00000000E+00  0.00000000E+00  0.00000000E+00
  0.00000000E+00  0.00000000E+00  0.00000000E+00
  0.00000000E+00  0.00000000E+00  0.00000000E+00
  0.00000000E+00  0.00000000E+00  0.00000000E+00
  0.00000000E+00  0.00000000E+00  0.00000000E+00
  0.00000000E+00  0.00000000E+00  0.00000000E+00
  0.00000000E+00  0.00000000E+00  0.00000000E+00
  0.00000000E+00  0.00000000E+00  0.00000000E+00
  0.00000000E+00  0.00000000E+00  0.00000000E+00
  0.00000000E+00  0.00000000E+00  0.00000000E+00
  0.00000000E+00  0.00000000E+00  0.00000000E+00
  0.00000000E+00  0.00000000E+00  0.00000000E+00
  0.00000000E+00  0.00000000E+00  0.00000000E+00
  0.00000000E+00  0.00000000E+00  0.00000000E+00
  0.00000000E+00  0.00000000E+00  0.00000000E+00
  0.00000000E+00  0.00000000E+00  0.00000000E+00
  0.00000000E+00  0.00000000E+00  0.00000000E+00
  0.00000000E+00  0.00000000E+00  0.00000000E+00
  0.00000000E+00  0.00000000E+00  0.00000000E+00
  0.00000000E+00  0.00000000E+00  0.00000000E+00
  0.00000000E+00  0.00000000E+00  0.00000000E+00
  0.00000000E+00  0.00000000E+00  0.00000000E+00
  0.00000000E+00  0.00000000E+00  0.00000000E+00
  0.00000000E+00  0.00000000E+00  0.00000000E+00
  0.00000000E+00  0.00000000E+00  0.00000000E+00
  0.00000000E+00  0.00000000E+00  0.00000000E+00
  0.00000000E+00  0.00000000E+00  0.00000000E+00
  0.00000000E+00  0.00000000E+00  0.00000000E+00
  0.00000000E+00  0.00000000E+00  0.00000000E+00
  0.00000000E+00  0.00000000E+00  0.00000000E+00
  0.00000000E+00  0.00000000E+00  0.00000000E+00
  0.00000000E+00  0.00000000E+00  0.00000000E+00
  0.00000000E+00  0.00000000E+00  0.00000000E+00
  0.00000000E+00  0.00000000E+00  0.00000000E+00
  0.00000000E+00  0.00000000E+00  0.00000000E+00
  0.00000000E+00  0.00000000E+00  0.00000000E+00
  0.00000000E+00  0.00000000E+00  0.00000000E+00
  0.00000000E+00  0.00000000E+00  0.00000000E+00
  0.00000000E+00  0.00000000E+00  0.00000000E+00
  0.00000000E+00  0.00000000E+00  0.00000000E+00
  0.00000000E+00  0.00000000E+00  0.00000000E+00
  0.00000000E+00  0.00000000E+00  0.00000000E+00
  0.00000000E+00  0.00000000E+00  0.00000000E+00
  0.00000000E+00  0.00000000E+00  0.00000000E+00
  0.00000000E+00  0.00000000E+00  0.00000000E+00
  0.00000000E+00  0.00000000E+00  0.00000000E+00
  0.00000000E+00  0.00000000E+00  0.00000000E+00
  0.00000000E+00  0.00000000E+00  0.00000000E+00
  0.00000000E+00  0.00000000E+00  0.00000000E+00
  0.00000000E+00  0.00000000E+00  0.00000000E+00
  0.00000000E+00  0.00000000E+00  0.00000000E+00
  0.00000000E+00  0.00000000E+00  0.00000000E+00
  0.00000000E+00  0.00000000E+00  0.00000000E+00
  0.00000000E+00  0.00000000E+00  0.00000000E+00
  0.00000000E+00  0.00000000E+00  0.00000000E+00
  0.00000000E+00  0.00000000E+00  0.00000000E+00
  0.00000000E+00  0.00000000E+00  0.00000000E+00
  0.00000000E+00  0.00000000E+00  0.00000000E+00
  0.00000000E+00  0.00000000E+00  0.00000000E+00
  0.00000000E+00  0.00000000E+00  0.00000000E+00
  0.00000000E+00  0.00000000E+00  0.00000000E+00
  0.00000000E+00  0.00000000E+00  0.00000000E+00
  0.00000000E+00  0.00000000E+00  0.00000000E+00
  0.00000000E+00  0.00000000E+00  0.00000000E+00
  0.00000000E+00  0.00000000E+00  0.00000000E+00
  0.00000000E+00  0.00000000E+00  0.00000000E+00
  0.00000000E+00  0.00000000E+00  0.00000000E+00
  0.00000000E+00  0.00000000E+00  0.00000000E+00
  0.00000000E+00  0.00000000E+00  0.00000000E+00
  0.00000000E+00  0.00000000E+00  0.00000000E+00
  0.00000000E+00  0.00000000E+00  0.00000000E+00
  0.00000000E+00  0.00000000E+00  0.00000000E+00
  0.00000000E+00  0.00000000E+00  0.00000000E+00
  0.00000000E+00  0.00000000E+00  0.00000000E+00
  0.00000000E+00  0.00000000E+00  0.00000000E+00
  0.00000000E+00  0.00000000E+00  0.00000000E+00
  0.00000000E+00  0.00000000E+00  0.00000000E+00
  0.00000000E+00  0.00000000E+00  0.00000000E+00
  0.00000000E+00  0.00000000E+00  0.00000000E+00
  0.00000000E+00  0.00000000E+00  0.00000000E+00
  0.00000000E+00  0.00000000E+00  0.00000000E+00
  0.00000000E+00  0.00000000E+00  0.00000000E+00
  0.00000000E+00  0.00000000E+00  0.00000000E+00
  0.00000000E+00  0.00000000E+00  0.00000000E+00
  0.00000000E+00  0.00000000E+00  0.00000000E+00
  0.00000000E+00  0.00000000E+00  0.00000000E+00
  0.00000000E+00  0.00000000E+00  0.00000000E+00
  0.00000000E+00  0.00000000E+00  0.00000000E+00
  0.00000000E+00  0.00000000E+00  0.00000000E+00
  0.00000000E+00  0.00000000E+00  0.00000000E+00
  0.00000000E+00  0.00000000E+00  0.00000000E+00
  0.00000000E+00  0.00000000E+00  0.00000000E+00
  0.00000000E+00  0.00000000E+00  0.00000000E+00
  0.00000000E+00  0.00000000E+00  0.00000000E+00
  0.00000000E+00  0.00000000E+00  0.00000000E+00
  0.00000000E+00  0.00000000E+00  0.00000000E+00
  0.00000000E+00  0.00000000E+00  0.00000000E+00
  0.00000000E+00  0.00000000E+00  0.00000000E+00
  0.00000000E+00  0.00000000E+00  0.00000000E+00
  0.00000000E+00  0.00000000E+00  0.00000000E+00
  0.00000000E+00  0.00000000E+00  0.00000000E+00
  0.00000000E+00  0.00000000E+00  0.00000000E+00
  0.00000000E+00  0.00000000E+00  0.00000000E+00
  0.00000000E+00  0.00000000E+00  0.00000000E+00
  0.00000000E+00  0.00000000E+00  0.00000000E+00
  0.00000000E+00  0.00000000E+00  0.00000000E+00
  0.00000000E+00  0.00000000E+00  0.00000000E+00
  0.00000000E+00  0.00000000E+00  0.00000000E+00
  0.00000000E+00  0.00000000E+00  0.00000000E+00
  0.00000000E+00  0.00000000E+00  0.00000000E+00
  0.00000000E+00  0.00000000E+00  0.00000000E+00
  0.00000000E+00  0.00000000E+00  0.00000000E+00
  0.00000000E+00  0.00000000E+00  0.00000000E+00
  0.00000000E+00  0.00000000E+00  0.00000000E+00
  0.00000000E+00  0.00000000E+00  0.00000000E+00
  0.00000000E+00  0.00000000E+00  0.00000000E+00
  0.00000000E+00  0.00000000E+00  0.00000000E+00
  0.00000000E+00  0.00000000E+00  0.00000000E+00
  0.00000000E+00  0.00000000E+00  0.00000000E+00
  0.00000000E+00  0.00000000E+00  0.00000000E+00
  0.00000000E+00  0.00000000E+00  0.00000000E+00
  0.00000000E+00  0.00000000E+00  0.00000000E+00
  0.00000000E+00  0.00000000E+00  0.00000000E+00
  0.00000000E+00  0.00000000E+00  0.00000000E+00
  0.00000000E+00  0.00000000E+00  0.00000000E+00
  0.00000000E+00  0.00000000E+00  0.00000000E+00
  0.00000000E+00  0.00000000E+00  0.00000000E+00
  0.00000000E+00  0.00000000E+00  0.00000000E+00
  0.00000000E+00  0.00000000E+00  0.00000000E+00
  0.00000000E+00  0.00000000E+00  0.00000000E+00
  0.00000000E+00  0.00000000E+00  0.00000000E+00
  0.00000000E+00  0.00000000E+00  0.00000000E+00
  0.00000000E+00  0.00000000E+00  0.00000000E+00
  0.00000000E+00  0.00000000E+00  0.00000000E+00
  0.00000000E+00  0.00000000E+00  0.00000000E+00
  0.00000000E+00  0.00000000E+00  0.00000000E+00
  0.00000000E+00  0.00000000E+00  0.00000000E+00
  0.00000000E+00  0.00000000E+00  0.00000000E+00
  0.00000000E+00  0.00000000E+00  0.00000000E+00
  0.00000000E+00  0.00000000E+00  0.00000000E+00
  0.00000000E+00  0.00000000E+00  0.00000000E+00
  0.00000000E+00  0.00000000E+00  0.00000000E+00
  0.00000000E+00  0.00000000E+00  0.00000000E+00
  0.00000000E+00  0.00000000E+00  0.00000000E+00
  0.00000000E+00  0.00000000E+00  0.00000000E+00
  0.00000000E+00  0.00000000E+00  0.00000000E+00
  0.00000000E+00  0.00000000E+00  0.00000000E+00
  0.00000000E+00  0.00000000E+00  0.00000000E+00
  0.00000000E+00  0.00000000E+00  0.00000000E+00
  0.00000000E+00  0.00000000E+00  0.00000000E+00
  0.00000000E+00  0.00000000E+00  0.00000000E+00
  0.00000000E+00  0.00000000E+00  0.00000000E+00
  0.00000000E+00  0.00000000E+00  0.00000000E+00
  0.00000000E+00  0.00000000E+00  0.00000000E+00
  0.00000000E+00  0.00000000E+00  0.00000000E+00
  0.00000000E+00  0.00000000E+00  0.00000000E+00
