 C  N Cr  O  H                          
   1.00000000000000     
    12.4758271999999995    0.0000000000000000    0.0000000000000000
     0.0000000000000000   12.7377722999999996    0.0000000000000000
     0.0000000000000000    0.0000000000000000   30.0000000000000000
   C    N    Cr   O    H 
    54     4     1    47    91
Direct
  0.9890970668245117  0.1044553877878856  0.1041139822405238
  0.0897437423966900  0.1595021184668574  0.1038620143128898
  0.0891713900805872  0.2709103170953845  0.1021284302487014
  0.9891387859341497  0.3260299869407368  0.1004599533828678
  0.1904851774827377  0.1048721116661422  0.1048103446580493
  0.2907134390727444  0.1612540595976595  0.1052162060284922
  0.2897505454766130  0.2735057865522603  0.1042095586732282
  0.1885987704035000  0.3266032669312365  0.1022581279203029
  0.3906123985151138  0.1054032077700849  0.1062989875510188
  0.4890906249181919  0.1641201611104484  0.1065425487181527
  0.4890999435265747  0.2783839437738386  0.1063028400852270
  0.3879379570279800  0.3339145490711031  0.1054345376256147
  0.5876138139863555  0.1054834431609072  0.1061573481629855
  0.6875195767663846  0.1612780604562223  0.1049455501584937
  0.6885510073405783  0.2734771814971025  0.1036466111561954
  0.5903200761387887  0.3337432501957300  0.1049478868136258
  0.7877748029691432  0.1050281358620555  0.1047411866669871
  0.8885213231536756  0.1595907579194941  0.1038166007505038
  0.8891208670422521  0.2709839540151390  0.1018713263072621
  0.7897007912442131  0.3266194990280769  0.1014663034914853
  0.9891805346281343  0.4371338019575025  0.0981276223278473
  0.0879530623924299  0.4934047049349832  0.0986077569301527
  0.0879295005518252  0.6046864539443532  0.0984187154799764
  0.9891284395142232  0.6608304158395276  0.0980413446651344
  0.1870314789447479  0.4379142126879681  0.1007786903129033
  0.2852541107102874  0.4931414364209871  0.1023032318069204
  0.2851751710605685  0.6048065464503993  0.1024271487472388
  0.1869999146749492  0.6602137589934758  0.1003750092122767
  0.6929379527822237  0.4931546581003650  0.1009826178447932
  0.6928947685910415  0.6047539609208544  0.1013465986464205
  0.7911525362999874  0.4378491766486171  0.0992906622022068
  0.8902870233878976  0.4933001339269850  0.0973357506960956
  0.8903025419508359  0.6046907988866903  0.0974845836537600
  0.7911236252989102  0.6600604527053482  0.0997065833893604
  0.9892185423936489  0.7719307489000903  0.1001084394873381
  0.0892050727985909  0.8270252016200367  0.1014318742454186
  0.9891517515706357  0.9934244383322750  0.1039372940752741
  0.1885774596538904  0.7713910977415043  0.1015881012323167
  0.2896351227324543  0.8243705452360353  0.1037494915765550
  0.2906608097818441  0.9365130311564249  0.1048754570506671
  0.1904997153253943  0.9927865560465804  0.1045842317438473
  0.3878032542831698  0.7641281209286541  0.1056914927918229
  0.4890403502050334  0.8195025457934298  0.1067369784430692
  0.4890794761912742  0.9337003582454666  0.1067070251142407
  0.3905553392748499  0.9922958063006081  0.1062350004961458
  0.5901842809348226  0.7641317380990486  0.1056734297720839
  0.6884271663987465  0.8244130009325626  0.1041502345038444
  0.6874868138002204  0.9366132517897758  0.1052021242629578
  0.5875808438648469  0.9923731825103175  0.1063299213971287
  0.7895737251169960  0.7713142400177970  0.1018447287587247
  0.8891006438126765  0.8269848644563005  0.1018135169137922
  0.7877321268131552  0.9929497894298135  0.1047732204526355
  0.0897591421898536  0.9382415899533985  0.1034262623889822
  0.8885272129151628  0.9384158342123493  0.1036876632284749
  0.3830609096720222  0.4423510880503655  0.1050770389099668
  0.3829308208593521  0.6554580897378053  0.1060432121242625
  0.5953257135557598  0.4423232942388948  0.1046529367471602
  0.5951826421864698  0.6554413025113157  0.1054276493175915
  0.4894073280983801  0.5479769046303212  0.1257335945365486
  0.8608384372644591  1.0030712921795737  0.2753252160094248
  0.9596964957018296  0.7047257276636785  0.2753653275347129
  0.5527161170938464  0.8658580435227232  0.2132261991142059
  0.1795298629293730  0.7988409252216511  0.2019547250002712
  0.7009194004061444  0.2831989896641843  0.2304543251472232
  0.6762298238353741  0.1044871544152066  0.4294546668560486
  0.7065466623677328  0.4938457703069414  0.2107973721468124
  0.3414933080619545  0.9481534865388711  0.2203521536753245
  0.4704073253774222  0.1562749835578952  0.3052336685484328
  0.0939866232706989  0.5535345144512068  0.3989196454903777
  0.7805103023310714  0.2131336803844258  0.3585101244596763
  0.7411845731223066  0.6499749213636030  0.2849354694472163
  0.3118853604308001  0.1646802783182502  0.2399261522034642
  0.0802867256494440  0.7837233471841760  0.5017022542709282
  0.8761953874934546  0.7469911386190217  0.4569654988397568
  0.8530410810638362  0.9575851085428008  0.4386991167673868
  0.9669424286330188  0.3687797583326259  0.3190402209355744
  0.2168246556866495  0.6451450434027733  0.2656202385994434
  0.2677388876159478  0.4166950890003829  0.3727927456244917
  0.5658022578674331  0.1064380288594787  0.2201179070824563
  0.3405848669921369  0.3756809174183393  0.2062683695425661
  0.1206022198650426  0.2397201399334969  0.3657520063234104
  0.9247094855368129  0.5379671395490869  0.2032060318446688
  0.1541828112186700  0.9308639340954001  0.3743632983256063
  0.5101661143821815  0.8793595849788296  0.3577089126701359
  0.4313567519054037  0.6987265768619173  0.4040959667197874
  0.6708449798649005  0.8650990542360883  0.2937380474895923
  0.2661222179040383  0.0856768575069113  0.4288989855383555
  0.7745261204810873  0.4818281208276736  0.3395242646998782
  0.4933189764817156  0.4612048934321011  0.4031495421307027
  0.4782455245380476  0.6477622248829322  0.3149961711121107
  0.9569518979174944  0.0487251614064856  0.3563438503926032
  0.2445474748418524  0.6744858474567091  0.4514727550694315
  0.0853742956940529  0.4717296885729614  0.2558670655855035
  0.8639179805415453  0.5284642644819004  0.4226221297106390
  0.9010487500252463  0.2137090271934383  0.2535608560455657
  0.1042250296950862  0.7272915709097972  0.3411400450685860
  0.6941185435706262  0.3416757683432895  0.4263938099665518
  0.5946459793942135  0.3443244171418713  0.3104328215953718
  0.1029598015859002  0.2728020975352381  0.2181036958339152
  0.3097666019585991  0.8989088523060864  0.3136817931708793
  0.4737462316000426  0.0735375175991800  0.3922524471612890
  0.9584620164131373  0.8601432946232667  0.2149007292594738
  1.0012972165264595  0.9838832961880538  0.5092300743476937
  0.4101018754782556  0.4554182191052772  0.2989545493942998
  0.4900789829909490  0.5441952031345764  0.1785427522641086
  0.4195286594969875  0.7138623229066133  0.2350659181298792
  0.8720678027081135  0.0758713832229890  0.2645809519814416
  0.8949221808194456  0.9575327261085330  0.2527998898081792
  0.0070627642296273  0.7190991395489078  0.3018220355981988
  0.9893671600216754  0.6420487637400910  0.2613517765864049
  0.5973299200647988  0.8670679952929148  0.2405494578991138
  0.5026991770662400  0.8033365036823588  0.2194463811160656
  0.1122993294052154  0.8376491930833503  0.2056956786996970
  0.2380779103432831  0.8483989828025393  0.2091085737554465
  0.6897808108949581  0.3537687589044078  0.2170779481009088
  0.6518000489364467  0.2295430705139523  0.2183658872174062
  0.7114150350209014  0.1270728795734120  0.4016490795917578
  0.7220374071932494  0.0461707077771869  0.4396431421917144
  0.6842810538671433  0.5402383832835598  0.2352131687612151
  0.7848581606013478  0.5057941232559080  0.2098165233814196
  0.4184738792210092  0.9299751577869056  0.2179804870136585
  0.3362084674250673  0.0251045328057220  0.2230954276087634
  0.5101440954286546  0.2222831507388022  0.3104949546376388
  0.4671487061762968  0.1224801386601996  0.3350166679007171
  0.0870424409148688  0.6150932486797998  0.3790359636475667
  0.0211021145961863  0.5367850804013584  0.4093017092559190
  0.7360649059360043  0.2188656995340154  0.3319487053473337
  0.7560576387993923  0.2717487726047134  0.3778233546679199
  0.7026978393276840  0.7150827303218243  0.2926469220495052
  0.8161160421245955  0.6730891715762854  0.2811269803514456
  0.2385005942133457  0.1837517655888022  0.2480523594222620
  0.3555967162613582  0.1652983529540836  0.2676509388678706
  0.0848790914607747  0.7553159565298905  0.5317304520990062
  0.0601803025076595  0.8591289352764619  0.5056452273811316
  0.8639785093124362  0.6768448018296297  0.4444283470431254
  0.9462736875025142  0.7443604916018122  0.4719383471696000
  0.8892729950660244  0.9731262721692945  0.4104073305808047
  0.8522356210931600  0.8795823156992966  0.4413280275857117
  0.9378225459129056  0.3127489717332463  0.2997254136784117
  0.9027865920220844  0.4081670452287854  0.3289932902093877
  0.1917825024801142  0.6978727762895736  0.2434329146419244
  0.2954499536117777  0.6521613897787646  0.2610285653840972
  0.2334915239698797  0.3476262910347717  0.3701271297312472
  0.2083762399004276  0.4638666549973240  0.3815373236206143
  0.5363708505244218  0.1099030233629552  0.2506128463068633
  0.5742620500002602  0.0312761116213820  0.2142467710088031
  0.3602189922773661  0.4150249191467881  0.2332083274487768
  0.3415262928176486  0.3022949768910819  0.2164553479880936
  0.0633386512441215  0.2873537583125483  0.3553494120561687
  0.0976581781139600  0.1706012800158887  0.3554637956626263
  0.9472229302191238  0.5318017635608003  0.1723814477331376
  0.9841362270075954  0.5060373549395787  0.2210682485574532
  0.2078224092804015  0.9330531293817343  0.3495768976945909
  0.0927504325357631  0.9744724249604702  0.3657415841945378
  0.4996261387767079  0.9457582434740578  0.3746505466443238
  0.4975308053167380  0.8211274098988454  0.3787057794841048
  0.3622903683792751  0.6983450238660747  0.4208740414780359
  0.4658174440533312  0.6323004509024142  0.4120630393736938
  0.7267696390057263  0.9190789281803107  0.2945491252506134
  0.6209766308433161  0.8766553459593547  0.3191093315532315
  0.2281748367304947  0.0268559070463478  0.4143186932376046
  0.2283296119978622  0.1481683158504677  0.4185048369012383
  0.7117462959572957  0.4361238688966633  0.3354720421046110
  0.7578652676616913  0.5463503270249085  0.3218595701398365
  0.4182454362800651  0.4381437562247423  0.4050677930321897
  0.5034643655074791  0.4684442108091048  0.3710329673141500
  0.4438423181278975  0.6788934821226056  0.3414206768972854
  0.4544658980625212  0.6873596362773839  0.2875401440312862
  0.9272634525950080  0.0217555070909435  0.3277559980706967
  0.9152579144252676  0.1129334749320104  0.3613648618578708
  0.1917036776229717  0.6281528525161685  0.4371461680375655
  0.2007031380243544  0.7263361369320249  0.4674290260713579
  0.0525115863239902  0.4463569649708851  0.2841669983430486
  0.1422139942681825  0.5250949947554573  0.2618348558964517
  0.8261162562785178  0.5155276328962688  0.3940410688090410
  0.8303971803205140  0.4777274408504023  0.4426316885716015
  0.8345401993608473  0.2431030575047275  0.2402831762897601
  0.9617156470142296  0.2297494620115364  0.2337055958208782
  0.1197649464804241  0.7949615803899036  0.3562731472893573
  0.1656310560970626  0.7124552074919542  0.3213059604431394
  0.6245494075338456  0.3760027911820127  0.4209653216603631
  0.6771420968222910  0.2764408022009769  0.4421729053309816
  0.5285851330472965  0.3870238887615854  0.3042799715400294
  0.6285649390274112  0.3307670152287975  0.2812625783737724
  0.1112562528738449  0.3443975354391209  0.2309219172000340
  0.1440914506462458  0.2758713996351949  0.1906204566228759
  0.3818418366731485  0.8900226801976875  0.3268850682437628
  0.3208492713222039  0.9129627006186284  0.2817710844145611
  0.4063685582834616  0.0817006205537579  0.4094804570172674
  0.5366099702061814  0.0878540469087482  0.4115306738354458
  0.9574096014135929  0.8001695845191680  0.2367897224050045
  0.9121916932796550  0.8377346665109334  0.1906129316887177
  0.9480156176332681  0.9853046173908294  0.4846288391179264
  0.0495380473446945  0.0424736433288638  0.5037806268456497
  0.4313420578691298  0.5313064353354102  0.3045803063908945
  0.3536332419163175  0.4408765106307506  0.3212390152059555
  0.4489616674152899  0.6505986459972716  0.2213597122381613
 
  0.00000000E+00  0.00000000E+00  0.00000000E+00
  0.00000000E+00  0.00000000E+00  0.00000000E+00
  0.00000000E+00  0.00000000E+00  0.00000000E+00
  0.00000000E+00  0.00000000E+00  0.00000000E+00
  0.00000000E+00  0.00000000E+00  0.00000000E+00
  0.00000000E+00  0.00000000E+00  0.00000000E+00
  0.00000000E+00  0.00000000E+00  0.00000000E+00
  0.00000000E+00  0.00000000E+00  0.00000000E+00
  0.00000000E+00  0.00000000E+00  0.00000000E+00
  0.00000000E+00  0.00000000E+00  0.00000000E+00
  0.00000000E+00  0.00000000E+00  0.00000000E+00
  0.00000000E+00  0.00000000E+00  0.00000000E+00
  0.00000000E+00  0.00000000E+00  0.00000000E+00
  0.00000000E+00  0.00000000E+00  0.00000000E+00
  0.00000000E+00  0.00000000E+00  0.00000000E+00
  0.00000000E+00  0.00000000E+00  0.00000000E+00
  0.00000000E+00  0.00000000E+00  0.00000000E+00
  0.00000000E+00  0.00000000E+00  0.00000000E+00
  0.00000000E+00  0.00000000E+00  0.00000000E+00
  0.00000000E+00  0.00000000E+00  0.00000000E+00
  0.00000000E+00  0.00000000E+00  0.00000000E+00
  0.00000000E+00  0.00000000E+00  0.00000000E+00
  0.00000000E+00  0.00000000E+00  0.00000000E+00
  0.00000000E+00  0.00000000E+00  0.00000000E+00
  0.00000000E+00  0.00000000E+00  0.00000000E+00
  0.00000000E+00  0.00000000E+00  0.00000000E+00
  0.00000000E+00  0.00000000E+00  0.00000000E+00
  0.00000000E+00  0.00000000E+00  0.00000000E+00
  0.00000000E+00  0.00000000E+00  0.00000000E+00
  0.00000000E+00  0.00000000E+00  0.00000000E+00
  0.00000000E+00  0.00000000E+00  0.00000000E+00
  0.00000000E+00  0.00000000E+00  0.00000000E+00
  0.00000000E+00  0.00000000E+00  0.00000000E+00
  0.00000000E+00  0.00000000E+00  0.00000000E+00
  0.00000000E+00  0.00000000E+00  0.00000000E+00
  0.00000000E+00  0.00000000E+00  0.00000000E+00
  0.00000000E+00  0.00000000E+00  0.00000000E+00
  0.00000000E+00  0.00000000E+00  0.00000000E+00
  0.00000000E+00  0.00000000E+00  0.00000000E+00
  0.00000000E+00  0.00000000E+00  0.00000000E+00
  0.00000000E+00  0.00000000E+00  0.00000000E+00
  0.00000000E+00  0.00000000E+00  0.00000000E+00
  0.00000000E+00  0.00000000E+00  0.00000000E+00
  0.00000000E+00  0.00000000E+00  0.00000000E+00
  0.00000000E+00  0.00000000E+00  0.00000000E+00
  0.00000000E+00  0.00000000E+00  0.00000000E+00
  0.00000000E+00  0.00000000E+00  0.00000000E+00
  0.00000000E+00  0.00000000E+00  0.00000000E+00
  0.00000000E+00  0.00000000E+00  0.00000000E+00
  0.00000000E+00  0.00000000E+00  0.00000000E+00
  0.00000000E+00  0.00000000E+00  0.00000000E+00
  0.00000000E+00  0.00000000E+00  0.00000000E+00
  0.00000000E+00  0.00000000E+00  0.00000000E+00
  0.00000000E+00  0.00000000E+00  0.00000000E+00
  0.00000000E+00  0.00000000E+00  0.00000000E+00
  0.00000000E+00  0.00000000E+00  0.00000000E+00
  0.00000000E+00  0.00000000E+00  0.00000000E+00
  0.00000000E+00  0.00000000E+00  0.00000000E+00
  0.00000000E+00  0.00000000E+00  0.00000000E+00
  0.00000000E+00  0.00000000E+00  0.00000000E+00
  0.00000000E+00  0.00000000E+00  0.00000000E+00
  0.00000000E+00  0.00000000E+00  0.00000000E+00
  0.00000000E+00  0.00000000E+00  0.00000000E+00
  0.00000000E+00  0.00000000E+00  0.00000000E+00
  0.00000000E+00  0.00000000E+00  0.00000000E+00
  0.00000000E+00  0.00000000E+00  0.00000000E+00
  0.00000000E+00  0.00000000E+00  0.00000000E+00
  0.00000000E+00  0.00000000E+00  0.00000000E+00
  0.00000000E+00  0.00000000E+00  0.00000000E+00
  0.00000000E+00  0.00000000E+00  0.00000000E+00
  0.00000000E+00  0.00000000E+00  0.00000000E+00
  0.00000000E+00  0.00000000E+00  0.00000000E+00
  0.00000000E+00  0.00000000E+00  0.00000000E+00
  0.00000000E+00  0.00000000E+00  0.00000000E+00
  0.00000000E+00  0.00000000E+00  0.00000000E+00
  0.00000000E+00  0.00000000E+00  0.00000000E+00
  0.00000000E+00  0.00000000E+00  0.00000000E+00
  0.00000000E+00  0.00000000E+00  0.00000000E+00
  0.00000000E+00  0.00000000E+00  0.00000000E+00
  0.00000000E+00  0.00000000E+00  0.00000000E+00
  0.00000000E+00  0.00000000E+00  0.00000000E+00
  0.00000000E+00  0.00000000E+00  0.00000000E+00
  0.00000000E+00  0.00000000E+00  0.00000000E+00
  0.00000000E+00  0.00000000E+00  0.00000000E+00
  0.00000000E+00  0.00000000E+00  0.00000000E+00
  0.00000000E+00  0.00000000E+00  0.00000000E+00
  0.00000000E+00  0.00000000E+00  0.00000000E+00
  0.00000000E+00  0.00000000E+00  0.00000000E+00
  0.00000000E+00  0.00000000E+00  0.00000000E+00
  0.00000000E+00  0.00000000E+00  0.00000000E+00
  0.00000000E+00  0.00000000E+00  0.00000000E+00
  0.00000000E+00  0.00000000E+00  0.00000000E+00
  0.00000000E+00  0.00000000E+00  0.00000000E+00
  0.00000000E+00  0.00000000E+00  0.00000000E+00
  0.00000000E+00  0.00000000E+00  0.00000000E+00
  0.00000000E+00  0.00000000E+00  0.00000000E+00
  0.00000000E+00  0.00000000E+00  0.00000000E+00
  0.00000000E+00  0.00000000E+00  0.00000000E+00
  0.00000000E+00  0.00000000E+00  0.00000000E+00
  0.00000000E+00  0.00000000E+00  0.00000000E+00
  0.00000000E+00  0.00000000E+00  0.00000000E+00
  0.00000000E+00  0.00000000E+00  0.00000000E+00
  0.00000000E+00  0.00000000E+00  0.00000000E+00
  0.00000000E+00  0.00000000E+00  0.00000000E+00
  0.00000000E+00  0.00000000E+00  0.00000000E+00
  0.00000000E+00  0.00000000E+00  0.00000000E+00
  0.00000000E+00  0.00000000E+00  0.00000000E+00
  0.00000000E+00  0.00000000E+00  0.00000000E+00
  0.00000000E+00  0.00000000E+00  0.00000000E+00
  0.00000000E+00  0.00000000E+00  0.00000000E+00
  0.00000000E+00  0.00000000E+00  0.00000000E+00
  0.00000000E+00  0.00000000E+00  0.00000000E+00
  0.00000000E+00  0.00000000E+00  0.00000000E+00
  0.00000000E+00  0.00000000E+00  0.00000000E+00
  0.00000000E+00  0.00000000E+00  0.00000000E+00
  0.00000000E+00  0.00000000E+00  0.00000000E+00
  0.00000000E+00  0.00000000E+00  0.00000000E+00
  0.00000000E+00  0.00000000E+00  0.00000000E+00
  0.00000000E+00  0.00000000E+00  0.00000000E+00
  0.00000000E+00  0.00000000E+00  0.00000000E+00
  0.00000000E+00  0.00000000E+00  0.00000000E+00
  0.00000000E+00  0.00000000E+00  0.00000000E+00
  0.00000000E+00  0.00000000E+00  0.00000000E+00
  0.00000000E+00  0.00000000E+00  0.00000000E+00
  0.00000000E+00  0.00000000E+00  0.00000000E+00
  0.00000000E+00  0.00000000E+00  0.00000000E+00
  0.00000000E+00  0.00000000E+00  0.00000000E+00
  0.00000000E+00  0.00000000E+00  0.00000000E+00
  0.00000000E+00  0.00000000E+00  0.00000000E+00
  0.00000000E+00  0.00000000E+00  0.00000000E+00
  0.00000000E+00  0.00000000E+00  0.00000000E+00
  0.00000000E+00  0.00000000E+00  0.00000000E+00
  0.00000000E+00  0.00000000E+00  0.00000000E+00
  0.00000000E+00  0.00000000E+00  0.00000000E+00
  0.00000000E+00  0.00000000E+00  0.00000000E+00
  0.00000000E+00  0.00000000E+00  0.00000000E+00
  0.00000000E+00  0.00000000E+00  0.00000000E+00
  0.00000000E+00  0.00000000E+00  0.00000000E+00
  0.00000000E+00  0.00000000E+00  0.00000000E+00
  0.00000000E+00  0.00000000E+00  0.00000000E+00
  0.00000000E+00  0.00000000E+00  0.00000000E+00
  0.00000000E+00  0.00000000E+00  0.00000000E+00
  0.00000000E+00  0.00000000E+00  0.00000000E+00
  0.00000000E+00  0.00000000E+00  0.00000000E+00
  0.00000000E+00  0.00000000E+00  0.00000000E+00
  0.00000000E+00  0.00000000E+00  0.00000000E+00
  0.00000000E+00  0.00000000E+00  0.00000000E+00
  0.00000000E+00  0.00000000E+00  0.00000000E+00
  0.00000000E+00  0.00000000E+00  0.00000000E+00
  0.00000000E+00  0.00000000E+00  0.00000000E+00
  0.00000000E+00  0.00000000E+00  0.00000000E+00
  0.00000000E+00  0.00000000E+00  0.00000000E+00
  0.00000000E+00  0.00000000E+00  0.00000000E+00
  0.00000000E+00  0.00000000E+00  0.00000000E+00
  0.00000000E+00  0.00000000E+00  0.00000000E+00
  0.00000000E+00  0.00000000E+00  0.00000000E+00
  0.00000000E+00  0.00000000E+00  0.00000000E+00
  0.00000000E+00  0.00000000E+00  0.00000000E+00
  0.00000000E+00  0.00000000E+00  0.00000000E+00
  0.00000000E+00  0.00000000E+00  0.00000000E+00
  0.00000000E+00  0.00000000E+00  0.00000000E+00
  0.00000000E+00  0.00000000E+00  0.00000000E+00
  0.00000000E+00  0.00000000E+00  0.00000000E+00
  0.00000000E+00  0.00000000E+00  0.00000000E+00
  0.00000000E+00  0.00000000E+00  0.00000000E+00
  0.00000000E+00  0.00000000E+00  0.00000000E+00
  0.00000000E+00  0.00000000E+00  0.00000000E+00
  0.00000000E+00  0.00000000E+00  0.00000000E+00
  0.00000000E+00  0.00000000E+00  0.00000000E+00
  0.00000000E+00  0.00000000E+00  0.00000000E+00
  0.00000000E+00  0.00000000E+00  0.00000000E+00
  0.00000000E+00  0.00000000E+00  0.00000000E+00
  0.00000000E+00  0.00000000E+00  0.00000000E+00
  0.00000000E+00  0.00000000E+00  0.00000000E+00
  0.00000000E+00  0.00000000E+00  0.00000000E+00
  0.00000000E+00  0.00000000E+00  0.00000000E+00
  0.00000000E+00  0.00000000E+00  0.00000000E+00
  0.00000000E+00  0.00000000E+00  0.00000000E+00
  0.00000000E+00  0.00000000E+00  0.00000000E+00
  0.00000000E+00  0.00000000E+00  0.00000000E+00
  0.00000000E+00  0.00000000E+00  0.00000000E+00
  0.00000000E+00  0.00000000E+00  0.00000000E+00
  0.00000000E+00  0.00000000E+00  0.00000000E+00
  0.00000000E+00  0.00000000E+00  0.00000000E+00
  0.00000000E+00  0.00000000E+00  0.00000000E+00
  0.00000000E+00  0.00000000E+00  0.00000000E+00
  0.00000000E+00  0.00000000E+00  0.00000000E+00
  0.00000000E+00  0.00000000E+00  0.00000000E+00
  0.00000000E+00  0.00000000E+00  0.00000000E+00
  0.00000000E+00  0.00000000E+00  0.00000000E+00
  0.00000000E+00  0.00000000E+00  0.00000000E+00
  0.00000000E+00  0.00000000E+00  0.00000000E+00
  0.00000000E+00  0.00000000E+00  0.00000000E+00
  0.00000000E+00  0.00000000E+00  0.00000000E+00
  0.00000000E+00  0.00000000E+00  0.00000000E+00
  0.00000000E+00  0.00000000E+00  0.00000000E+00
  0.00000000E+00  0.00000000E+00  0.00000000E+00
